 # Version information for this restart file 
 # current date 2024-11-21 18:32:07.858
 # current working dir /scratch/work/courses/CHEM-GA-2671-2024fa/students/jw8872/comp-lab-class-2024/Week12-IntroAIMD/Runs/Water
 # Program compiled at                              Sat Dec 12 18:27:15 EST 2020
 # Program compiled on                                         cs001.nyu.cluster
 # Program compiled for                                                nyu-intel
 # Source code revision number                                       git:8c64c6e
 &GLOBAL
   PRINT_LEVEL  LOW
   PROJECT_NAME water_aimd_1ns_every0.5fs
   RUN_TYPE  MD
   WALLTIME 21600
 &END GLOBAL
 &MOTION
   &GEO_OPT
     OPTIMIZER  BFGS
     MAX_ITER  100
     MAX_DR     3.0000000000000001E-03
     &BFGS
     &END BFGS
   &END GEO_OPT
   &MD
     ENSEMBLE  NVT
     STEPS  2000
     TIMESTEP     4.9999999999999994E-01
     STEP_START_VAL  162
     TIME_START_VAL     8.1000000000000071E+01
     ECONS_START_VAL    -1.1023558357480233E+03
     TEMPERATURE     3.0000000000000000E+02
     &THERMOSTAT
       TYPE  GLE
       REGION  MASSIVE
       &GLE
         NDIM  5
         A_SCALE     1.0000000000000000E+00
         A_LIST     1.8595758612559999E+02    2.7263853498399998E-01    1.1526100454610001E+01   -3.6414578262600003E+01 \
             2.3173375816020001E+02
         A_LIST    -2.7809524712060002E-01    8.5951591808710006E-05    7.2189048017650004E-01   -1.9844539343859999E-01 \
             4.2409257583420001E-01
         A_LIST    -1.4825808131210000E+01   -7.2189048017650004E-01    1.3590902121280000E+00    5.1498896280349999E+00 \
            -9.9949268450990001E+00
         A_LIST    -1.0372189126880000E+01    1.9844539343859999E-01   -5.1498896280349999E+00    2.6661910891169999E+01 \
             1.1507715495310000E+01
         A_LIST     2.1801346360420001E+02   -4.2409257583420001E-01    9.9949268450990001E+00   -1.1507715495310000E+01 \
             3.0958394565589998E+02
         &THERMOSTAT_ENERGY
              -1.4811252424589603E-03
               1.3860997584505040E-03
              -2.0480323835969346E-04
              -3.2134873947172278E-03
              -1.1827740854205870E-03
               3.4417791762075441E-03
              -2.5400543867089894E-03
               6.1851179636703121E-04
               4.4225669820858963E-03
              -2.8536935540260928E-03
               3.2219979053260852E-03
               1.0640972358386524E-03
               1.9964776534475877E-03
              -1.4488117571167759E-03
               2.3056844066409401E-04
              -2.8738777681006815E-03
               2.5425397254392611E-03
              -3.2358910906758794E-03
               2.5238990269152639E-03
              -7.4410950554393632E-04
              -1.2895589095170768E-03
               6.5352567986619434E-04
              -3.4841671606065744E-05
               2.5960208519201066E-03
              -3.2803036091114020E-03
              -1.4991124475759060E-03
               3.5794320531774343E-03
               1.0479439446403980E-03
               5.7330243883613413E-04
              -3.0368248900328784E-04
              -9.0411152545495090E-04
              -2.1025251605406355E-03
               1.0713848326300744E-03
               2.3715071915908939E-03
              -2.4875811974573799E-03
               2.4780621480648794E-03
               2.3993078887615807E-04
               2.0535923285330026E-04
              -3.9660410558971259E-04
               1.9784494360663204E-03
              -1.5874381212779924E-04
              -2.4572172789522669E-03
              -1.1283455098035047E-03
               2.4969904176318793E-03
              -1.4347393949224584E-03
               9.1324642455895672E-04
              -7.7876803219954641E-04
               3.9759157249848762E-04
              -1.4893435531179405E-03
              -8.2631725093202930E-04
               2.1999131315541256E-03
               4.4264476676624876E-04
              -9.0528598345652523E-04
              -2.7351141863878633E-04
              -2.1799669280140222E-03
              -8.4638988412691167E-04
              -2.9453199301207448E-03
               1.3898039539972555E-03
               2.7865130329276905E-03
              -3.0678149821812320E-03
              -7.5220740320251610E-05
               3.9679781756226549E-03
              -1.0172933212330003E-03
              -4.3092535236658743E-04
              -5.1589663043728317E-04
               1.1934986267762824E-03
              -4.4032502707492824E-03
               2.4581781204630806E-03
              -8.7650411749878691E-04
               2.0252976158520843E-03
               4.7297711071754762E-04
              -7.8330422829802276E-05
              -1.7638391706161550E-03
               1.0782071465313334E-03
              -2.5935546384136827E-04
              -1.8054234377143244E-03
              -6.3756466831205844E-05
               2.1815404807511204E-03
               3.7942613318266414E-03
              -1.6340046701802246E-03
              -1.0978042051656305E-04
              -3.3450712029506753E-04
              -9.0203720249800335E-04
              -4.1936696590598037E-04
               3.3983846538233713E-03
              -8.2796520937208678E-05
               1.1808049789619607E-03
               1.1661776063387119E-03
               2.6468138656963043E-04
              -2.0733541602864823E-03
               3.0501689651569013E-03
              -2.5913690789616112E-03
               1.0160287664977841E-03
              -3.0981773595356864E-04
              -3.5112298201573997E-03
               4.1377300622822636E-05
              -2.8981522540370966E-04
               2.0926423095520908E-04
               2.0035668270227749E-03
               1.3253995226644860E-03
               9.1478513181485283E-05
              -2.9665543993129696E-03
              -3.9519748937798672E-04
               5.2849512439003107E-04
               5.3674705801124382E-03
              -2.2382611592467491E-03
              -1.7784970068038387E-03
              -1.3636287678039914E-03
               3.4590098809775750E-03
              -4.7564730337236076E-04
               3.5823560281333412E-03
               6.1714687327846045E-04
              -3.3968522133805536E-04
               9.8155706485559841E-04
              -7.9106870793467293E-06
               3.4384694549252468E-03
              -7.5773135935156659E-03
               9.0029989510279356E-04
               6.2669167397445206E-04
               1.2183856886727928E-03
               2.6409487268359594E-04
              -9.9068501881570707E-05
               3.9246933702990249E-03
              -7.0066362452106640E-04
              -3.5533178938762203E-03
               8.4594201441395573E-04
               7.1713883889489970E-04
               3.8867534139320381E-03
               9.2506227815820484E-04
               9.4892339823513102E-04
              -2.2459856106729712E-03
              -2.1043206438410124E-03
              -1.9445111416841018E-04
              -2.5568826416147660E-03
              -6.9289428061279873E-04
               1.4942979153764811E-04
              -2.8874853084125379E-04
              -1.8259027455846961E-03
               1.4176371254859949E-04
               1.5948872812431799E-03
               2.8573149031289203E-03
               2.0988073270084276E-03
               6.0397998342554395E-04
               9.6275609154075566E-05
              -2.0531322444870903E-03
               7.3768450211797074E-04
               1.1094818536686647E-03
              -3.5346191939995364E-04
              -2.4005349873581125E-03
               3.3555706268801472E-03
               3.7333266859433651E-04
               1.9108313237250745E-03
              -2.0744049224257640E-03
              -1.6371576321692243E-04
               1.5046206563784159E-03
               7.2587040259235896E-04
               1.8893958068026417E-03
              -4.4032313496708032E-05
              -1.8392716776640839E-03
               5.6068497972324403E-04
              -2.2853669076982022E-03
              -4.4373933222224870E-03
              -7.4877860671982962E-04
              -5.5541593575872677E-04
               2.0065381886429866E-03
               3.3159497803162252E-03
               3.5713613351691228E-03
              -1.7781626700814283E-04
              -5.2011507698679670E-03
               3.1939378233013932E-04
               4.5286878169682689E-04
               3.2503089808552587E-05
               1.4197205435304439E-03
              -4.9519479841496458E-04
              -7.5064596679394306E-04
              -2.5379317745589658E-03
               4.7340108762091750E-04
               1.3697927818580931E-03
              -1.1724366801685679E-04
               2.2513814432003716E-03
              -2.7330831002755494E-04
              -6.2472158143722374E-04
               1.5142142570408667E-03
               7.3657819720520691E-04
              -7.9300696668152819E-04
               4.8741622614860940E-04
              -1.3865908169561738E-03
               1.8587141711579343E-04
              -9.9124274833055576E-04
               1.0065580772518179E-03
               1.0678335325508864E-03
              -1.2801497355609925E-03
               3.2660905325729130E-03
              -3.0596458734097145E-03
               8.0641098870229096E-04
              -5.6401530297502545E-03
              -2.9004880510327376E-04
              -2.8169886192534906E-04
              -4.1370430159386597E-04
              -1.0291356018142677E-03
               1.2682239384923489E-03
              -1.3975419213118467E-03
               1.7799358794172962E-03
               1.5390293162178758E-03
              -2.5151398534092408E-03
              -9.0255969009665976E-04
              -1.0309393330151331E-03
               1.5697645373866653E-03
              -1.2376167071972996E-03
               3.9893986550478934E-03
              -1.0644900653785094E-03
               1.1609729207250156E-05
               2.4851605505928891E-03
              -4.1612004274834144E-03
               2.7506414330346015E-03
               5.2254112528199361E-03
               6.9475084581675317E-04
               1.2618373476533011E-03
              -1.0425902774017966E-03
              -1.2909657915184873E-03
               3.9571564313728566E-03
              -1.3915037290095926E-03
               1.1200831209778725E-03
              -8.6597639070457066E-04
              -8.0814509407624887E-04
               4.0372852446023301E-04
               9.8187315143268822E-06
               2.9772556133287882E-04
              -5.1225484753768301E-04
               3.3106361575138484E-03
              -8.0330731167878174E-06
               1.6205914059621660E-03
              -9.3780965335197133E-04
               8.3602327056564061E-04
               2.5633438993803185E-03
               1.2471232314956195E-03
              -1.9158803058646594E-03
               1.5380920548672080E-03
              -8.5820502333012647E-04
               1.3359961974481269E-04
               7.2895616951910590E-04
              -1.2815655869643319E-03
              -1.3630923883790553E-03
               4.0267057160699767E-04
               1.2426144593955897E-03
               4.8951715430274416E-04
              -1.6926182695719112E-04
               8.6780681792389175E-04
               4.6410612484445649E-04
              -2.5451721305646360E-03
               3.2263777885683625E-04
               2.6188834575227088E-03
              -6.9772054682470377E-04
               8.8272930502833187E-04
              -2.2097027036176212E-03
              -8.6244417986017067E-04
              -2.7939282602600702E-03
              -5.1497181839095974E-04
               3.0759846537653702E-04
              -1.3803151776086221E-03
               3.3516976366865375E-03
               2.1690891596205424E-03
               7.1528900351343675E-04
               8.2991191768067691E-04
              -6.6864517327653791E-04
              -2.6875194777962260E-04
              -6.6738820153554443E-04
               2.0277294358538663E-04
              -1.3842032978481520E-03
              -3.2681487638441739E-03
              -8.7920972235871152E-04
              -2.1421959830391635E-03
               1.1134466287778619E-03
              -1.4709784716395490E-03
               1.8745409235309460E-03
               1.7631983709362263E-03
              -4.1582582403876991E-03
              -1.1495588631074197E-03
               1.7595415644206924E-03
               9.5591345772408408E-04
               5.4730372253876576E-04
              -7.9323557552275206E-04
               4.9980188038880428E-03
               9.3562222183354643E-04
              -3.7070628236045310E-03
              -9.9136091093449965E-04
              -5.1714888146967477E-03
              -1.7491988630529230E-03
              -2.9185909890932360E-04
              -8.1599427486539846E-04
               3.6115154339102189E-04
               3.4615930144396246E-03
              -2.5114725562681113E-03
              -1.5121611227767308E-03
               1.5988706342459664E-03
               1.8077605238261390E-03
              -1.8492925655870874E-03
              -9.0082900756106908E-04
              -2.6221656748692066E-03
              -5.2112118989630261E-05
               6.2056251297509931E-04
               4.4685096320668509E-04
              -4.1660345256992982E-03
               2.1722475821872879E-03
               3.4983950730253328E-03
              -7.4640636375027363E-04
              -1.3715772575673788E-03
              -3.9743309644999370E-04
              -1.2103691568662721E-03
               1.6442945506254174E-03
               4.2785285408035532E-04
              -3.7822776199610665E-03
               2.4191223668735213E-03
               2.0703728190757291E-03
               1.1049980580176357E-03
               1.9668823341772992E-03
               5.3500503478512971E-04
               4.6976835746102208E-03
               1.8895190536687488E-03
              -1.6216956099453800E-03
               1.2614984987700960E-03
              -2.6140567614023258E-03
              -4.1191145525935041E-03
               3.5273165210197134E-03
               3.8295775372753483E-04
               1.2642452329767676E-03
               2.0473337114837684E-04
               1.0120499944129696E-03
              -1.3831371495690468E-03
              -6.7646406560636810E-04
              -2.3612957059622073E-03
              -2.2444565574452407E-03
               9.8071822475072671E-04
               1.8292782642965928E-03
               7.7425773819040516E-04
              -3.6770240242990840E-05
               1.5738592152921586E-03
               2.7088617894425885E-03
              -9.3935105613319504E-04
              -1.0260697726010067E-03
              -5.2407501402714223E-04
               1.2957246265908945E-03
               3.1742905199954124E-03
               1.3021706432863678E-03
              -4.2739601124263402E-04
              -5.2966119619261994E-04
              -2.5958272662036080E-03
              -1.1800035079190373E-03
              -1.8347387989071351E-03
              -8.5950019858625944E-04
              -2.1285929759393245E-03
               3.9034304509597483E-04
              -2.2900554817160946E-03
               1.9917338946880291E-04
              -6.9779801668379640E-04
              -2.8601497152473990E-04
               3.9677680887673901E-03
              -1.4527710136095796E-04
              -1.2312958731134781E-03
               4.7653819508931428E-03
              -8.0153043151073633E-05
               3.8832680445543568E-04
              -1.6394391406969206E-03
              -2.2181832237517509E-03
               1.1042295958554836E-03
              -2.8361150516786880E-03
               2.0334450383354434E-03
               8.9966674052122542E-04
               9.7686744946910427E-04
              -2.4313151388385464E-03
               3.3313308726600319E-03
              -1.6621332775383758E-03
               3.3906158633665393E-03
              -7.2135000390893388E-04
              -1.6789807430734884E-03
              -5.1222541922611876E-03
               3.1163222308931335E-03
               2.5992092684831293E-03
               9.1646244511360791E-04
               7.5002001331376752E-05
               1.2789786197205848E-03
               2.4955064526330974E-03
               1.7636193238641496E-03
               6.7746932506351906E-05
              -8.4389314038750256E-03
               2.0020960774375823E-04
              -4.7343276142485131E-04
              -4.3491417118797244E-03
               3.2466162985673758E-04
               1.1920433330449155E-03
               4.3345386518195547E-04
              -3.3594610057990299E-03
               3.0463558488272640E-05
              -1.9862121111083020E-03
              -3.8564677768995431E-03
              -2.9401613590101178E-03
              -3.1692634395930333E-03
               2.1629767408473562E-03
              -4.4612656553444244E-04
              -3.3275723350129495E-04
              -4.8248635162887526E-03
               1.4531529487597575E-03
               6.2507751895771288E-05
              -2.5634107021754731E-03
               2.8875515229608408E-03
              -2.0781361936072743E-03
              -7.5549917220170805E-05
               2.6187121720124707E-03
              -1.0471186702640896E-03
              -3.5539434379915956E-03
              -9.9166626476757547E-04
              -9.7739713619402402E-04
               4.5496391274173187E-04
               4.4526168608135155E-03
              -4.0059210727132121E-03
              -7.5849386597282877E-04
              -6.6446899025441922E-05
              -2.9813583842749399E-03
              -3.8085512560026517E-03
               7.5507840460687214E-03
              -4.2833885556954756E-04
              -3.9218414526821285E-03
               1.8785951628145209E-05
               2.5263630830727381E-03
              -1.3552250408068868E-03
              -2.1177407936407212E-03
               1.1259332738631177E-03
              -4.2645679319834075E-03
               1.0667897209199217E-03
              -7.3366291311252260E-04
              -1.9487428148237500E-04
              -4.8529197358738573E-03
               2.1761120259534868E-03
              -2.1079405692566999E-03
               1.1965469497580584E-03
              -2.2740170977991149E-03
              -2.2618509677420277E-03
               2.9368257462438993E-04
               5.3163955943056358E-03
               2.5339930883933009E-03
              -6.8028054580310769E-03
              -2.1097708023976544E-03
              -2.0921220568765075E-03
               1.2969094884079280E-03
               1.1479126871386241E-03
               2.5867465768180976E-03
              -1.1021437998072114E-03
              -4.5049097622286054E-03
               1.1422829897469299E-03
               5.8529321655901168E-04
              -6.4479374506227214E-04
              -2.0814371415658140E-03
               5.4756518315538460E-04
               1.5979726188911556E-03
              -2.9729053892992752E-03
               3.4276716602399024E-05
               7.3651333883591281E-03
              -2.0465566815763110E-04
              -2.6146259882362530E-03
               1.3152416040102102E-04
               3.3639403749648289E-03
              -1.2230530778236980E-03
               2.0029429859665197E-04
              -2.7038836600645874E-03
               8.6490303531365986E-04
              -1.7587795400384504E-03
              -1.4656014568909504E-03
              -1.2657807822541653E-03
               1.0097422517144094E-03
               1.8299740202772845E-03
               8.7306975768940996E-05
               1.3198748742795775E-03
              -2.5929721904521231E-03
               2.7608611036434119E-03
               1.8898804529067278E-04
               3.4013710575895449E-03
              -7.8797710236879533E-05
               3.2869453282859801E-04
              -5.0702016362683534E-04
               9.7955331401241349E-04
               5.8112724093945392E-03
              -1.3273755007696501E-03
              -1.4408483058019823E-03
              -1.3863302212508680E-03
              -1.3387866336801205E-03
              -7.3032464832003207E-04
               3.0467454441348402E-04
              -1.1644940465495722E-03
              -5.2733121627249223E-04
               1.8403787776454818E-04
              -4.2739570154753676E-05
               1.4327734459455227E-03
              -1.8120901533458201E-03
               1.2259284031319314E-04
               3.7933540681476534E-03
              -1.6768976633233824E-04
              -1.8229544170625704E-03
              -1.4368132821901132E-03
              -5.4737818085975130E-05
              -2.5544346421557678E-03
               3.4107322318867889E-03
               4.6617996451955867E-04
               1.7319943975266843E-03
              -1.2994885294998679E-03
               4.5954389012409648E-05
              -2.1065497651115580E-03
               1.4911657715736485E-03
               1.4746418940949727E-04
               1.7112595486470695E-03
              -6.9021354147720385E-04
               7.6201947152359324E-04
               5.0291255270754507E-03
              -4.9113727567654392E-03
               1.1472466987485430E-03
               2.1764705058606031E-04
               2.2261424662741868E-04
               2.5951179345087391E-03
              -1.5572857524453220E-03
               1.4123605152093643E-04
               1.2752648357936248E-03
               7.3451387881083086E-04
              -5.6423866620033489E-03
               4.5504578483184573E-04
               5.3686962823606607E-04
               1.5955532316123885E-03
              -1.4110560682278173E-04
               5.1949042521055389E-04
              -1.7142407009944354E-03
               2.7819381878031730E-03
               1.3490621663744637E-03
              -3.0236410475481803E-03
              -7.6155908850205842E-04
              -2.2625915222604587E-04
               1.8110602115484914E-05
               7.8254834050428155E-04
              -3.0073723331250669E-03
               1.3356920081363998E-03
               7.2602828308030896E-04
              -1.6071380520580407E-03
               8.0307186457783070E-04
               2.1760380813090337E-04
               2.9319285540152420E-04
               2.4738822034086061E-03
               1.3044020396609502E-03
              -1.4747182973859391E-03
              -4.6145255769002459E-04
              -2.6824189143659566E-04
               4.6157800205706180E-05
              -7.5476528383805529E-04
               1.6279030719063405E-04
              -2.7949830018895016E-03
              -8.9081065846708589E-04
               2.9046884594630400E-04
              -2.1297841908159256E-03
               3.5010911626117570E-03
              -2.3640245402423848E-03
               2.4188861875057564E-03
               2.5787443876203985E-03
               5.9288759750626505E-03
               5.1942095276054725E-04
              -7.1785287113678461E-04
              -3.6928424593116725E-03
              -3.8761123366807199E-03
               3.8909916466414052E-03
               2.7112398248010008E-03
               2.1049033783840736E-03
              -3.4833075077526088E-03
               6.0742205082630805E-05
               4.9581143792111417E-04
              -1.5732418536238495E-03
              -1.9976220954557025E-03
               1.3944461569683670E-03
               1.4471931119002465E-03
               5.1645439348046137E-03
              -3.6039227961964055E-03
              -2.6205012375086875E-03
         &END THERMOSTAT_ENERGY
         &RNG_INIT
Wiener process for Thermostat # 1        1 F T T  -1.7390083232809361E+00        3650209950.0        2953171268.0        2623755081.0          87146957.0        1808477164.0        3191870729.0             12345.0             12345.0             12345.0             12345.0             12345.0             12345.0             12345.0             12345.0             12345.0             12345.0             12345.0             12345.0
Wiener process for Thermostat # 2        1 F T T  -7.3498007483699701E-01         180742691.0          29537141.0        1055726879.0        3129982950.0        3593132476.0        1242846211.0        3692455944.0        1366884236.0        2968912127.0         335948734.0        4161675175.0         475798818.0        3692455944.0        1366884236.0        2968912127.0         335948734.0        4161675175.0         475798818.0
Wiener process for Thermostat # 3        1 F T T  -5.1449438237922818E-01         870740031.0        3612726003.0        1282117365.0        3257325898.0        3428653054.0         759220351.0        1015873554.0        1310354410.0        2249465273.0         994084013.0        2912484720.0        3876682925.0        1015873554.0        1310354410.0        2249465273.0         994084013.0        2912484720.0        3876682925.0
Wiener process for Thermostat # 4        1 F T T   4.9177024624353216E-01        2416125685.0        2107367723.0        3438671602.0        1112618576.0        3453271717.0        2617483633.0        2338701263.0        1119171942.0        2570676563.0         317077452.0        3194180850.0         618832124.0        2338701263.0        1119171942.0        2570676563.0         317077452.0        3194180850.0         618832124.0
Wiener process for Thermostat # 5        1 F T T   4.8900644573893237E-01        2137234305.0         248120518.0          76537988.0         915369783.0        2021857848.0         379351379.0        1597262096.0        3906379055.0        3312112953.0        1016013135.0        4099474108.0         275305423.0        1597262096.0        3906379055.0        3312112953.0        1016013135.0        4099474108.0         275305423.0
Wiener process for Thermostat # 6        1 F T T   8.7243556912025988E-01         651147439.0        3701016320.0        1942065134.0          49399554.0         766485980.0        2211655397.0          97147054.0        3131372450.0         829345164.0        3691032523.0        3006063034.0        4259826321.0          97147054.0        3131372450.0         829345164.0        3691032523.0        3006063034.0        4259826321.0
Wiener process for Thermostat # 7        1 F T T   1.7831594584066521E+00        4116576278.0        3659481651.0        3333751828.0        3240459128.0        1130504159.0        3021283325.0         796079799.0        2105258207.0         955365076.0        2923159030.0        4116632677.0        3067683584.0         796079799.0        2105258207.0         955365076.0        2923159030.0        4116632677.0        3067683584.0
Wiener process for Thermostat # 8        1 F T T   7.3632704610269906E-01        3701935112.0         566722200.0        4258722541.0        4096138861.0        1780159739.0         906188043.0        3281794178.0        2616230133.0        1457051261.0        2762791137.0        2480527362.0        2282316169.0        3281794178.0        2616230133.0        1457051261.0        2762791137.0        2480527362.0        2282316169.0
Wiener process for Thermostat # 9        1 F T T   4.5675361355842681E-01        3199280202.0        4156685631.0         302314297.0         920560729.0         216512316.0         594565934.0        3777646647.0        1837464056.0        4204654757.0         664239048.0        4190510072.0        2959195122.0        3777646647.0        1837464056.0        4204654757.0         664239048.0        4190510072.0        2959195122.0
Wiener process for Thermostat # 10       1 F T T   7.1622241837028411E-01        3013172601.0        2412070079.0        1273792316.0         189040175.0        4281194085.0        3839747680.0        4215590817.0        3862461878.0        1087200967.0        1544910132.0         936383720.0        1611370123.0        4215590817.0        3862461878.0        1087200967.0        1544910132.0         936383720.0        1611370123.0
Wiener process for Thermostat # 11       1 F T T  -1.4258953886229524E+00        3515065586.0        1517024353.0        1384702544.0        3960729671.0         647718484.0         804419830.0        1683636369.0         362165168.0         814316280.0         869382050.0         980203903.0        2062101717.0        1683636369.0         362165168.0         814316280.0         869382050.0         980203903.0        2062101717.0
Wiener process for Thermostat # 12       1 F T T   3.5699885059913411E-01         166779431.0        2569383057.0          38736548.0        1463932892.0        2716446579.0        2350662206.0         272317999.0         166758548.0         310112982.0         201045826.0        1680231254.0         118290799.0         272317999.0         166758548.0         310112982.0         201045826.0        1680231254.0         118290799.0
Wiener process for Thermostat # 13       1 F T T  -2.4531526448030860E-01        1792072244.0        1928253602.0        1371881381.0         798259365.0         224340700.0        2556177102.0        2245755202.0        1652682525.0        2865544364.0         721509566.0         209733568.0         592362218.0        2245755202.0        1652682525.0        2865544364.0         721509566.0         209733568.0         592362218.0