 # Version information for this restart file 
 # current date 2024-11-21 18:28:53.572
 # current working dir /scratch/work/courses/CHEM-GA-2671-2024fa/students/jw8872/comp-lab-class-2024/Week12-IntroAIMD/Runs/Water
 # Program compiled at                              Sat Dec 12 18:27:15 EST 2020
 # Program compiled on                                         cs001.nyu.cluster
 # Program compiled for                                                nyu-intel
 # Source code revision number                                       git:8c64c6e
 &GLOBAL
   PRINT_LEVEL  LOW
   PROJECT_NAME water_aimd_1ns_every0.5fs
   RUN_TYPE  MD
   WALLTIME 21600
 &END GLOBAL
 &MOTION
   &GEO_OPT
     OPTIMIZER  BFGS
     MAX_ITER  100
     MAX_DR     3.0000000000000001E-03
     &BFGS
     &END BFGS
   &END GEO_OPT
   &MD
     ENSEMBLE  NVT
     STEPS  2000
     TIMESTEP     4.9999999999999994E-01
     STEP_START_VAL  160
     TIME_START_VAL     8.0000000000000071E+01
     ECONS_START_VAL    -1.1023558357480233E+03
     TEMPERATURE     3.0000000000000000E+02
     &THERMOSTAT
       TYPE  GLE
       REGION  MASSIVE
       &GLE
         NDIM  5
         A_SCALE     1.0000000000000000E+00
         A_LIST     1.8595758612559999E+02    2.7263853498399998E-01    1.1526100454610001E+01   -3.6414578262600003E+01 \
             2.3173375816020001E+02
         A_LIST    -2.7809524712060002E-01    8.5951591808710006E-05    7.2189048017650004E-01   -1.9844539343859999E-01 \
             4.2409257583420001E-01
         A_LIST    -1.4825808131210000E+01   -7.2189048017650004E-01    1.3590902121280000E+00    5.1498896280349999E+00 \
            -9.9949268450990001E+00
         A_LIST    -1.0372189126880000E+01    1.9844539343859999E-01   -5.1498896280349999E+00    2.6661910891169999E+01 \
             1.1507715495310000E+01
         A_LIST     2.1801346360420001E+02   -4.2409257583420001E-01    9.9949268450990001E+00   -1.1507715495310000E+01 \
             3.0958394565589998E+02
         &THERMOSTAT_ENERGY
              -1.8508800991768610E-03
               2.3021253358677472E-03
              -1.2582398454315011E-04
              -3.1692479431480423E-03
              -1.1562539394397260E-03
               3.2578196600782840E-03
              -2.5065512623617201E-03
               6.0025966218665524E-04
               4.4612125637279836E-03
              -1.8559440070840200E-03
               3.0357872459746732E-03
               9.0182263480675072E-04
               1.8962729168530621E-03
              -1.3241101384550930E-03
               1.8494515947715514E-04
              -2.7513862572715593E-03
               2.3845437759684243E-03
              -2.5854251300675844E-03
               2.2828219441984612E-03
              -6.3597033935782572E-04
              -1.2552592507632221E-03
               5.3130647527439802E-04
               7.1854834124205152E-05
               3.2681254481743529E-03
              -3.7250348517805744E-03
              -1.3275387994759376E-03
               4.3704808731916808E-03
               1.1363453544932620E-03
               5.8044143163303477E-04
               2.5440891648169850E-04
              -5.8426928034202097E-04
              -2.0993379060805762E-03
              -1.1400586708499260E-04
               2.3698992822937148E-03
              -2.8173353589477498E-03
               2.1954656853613204E-03
               2.3147891869489934E-04
              -5.6900084668689232E-04
              -2.7028405087332723E-04
               1.9885824799241191E-03
               7.9782338432567504E-04
              -2.1128422181574389E-03
              -6.3039357200085058E-04
               1.9855029296328656E-03
              -1.6538019263542434E-03
               1.1336129484713353E-03
              -6.8129955026320762E-04
               3.6696987878981384E-04
              -1.0478335828804550E-03
              -1.3034253941151799E-03
               1.8279528887625849E-03
               4.5589862384459365E-04
              -4.7602767470123484E-04
              -3.3697165130287896E-04
              -2.3408922943362965E-03
              -7.6427347864023410E-04
              -8.8290978937022562E-04
               1.0217744758198228E-03
               2.5777287435514982E-03
              -4.2985119698522346E-03
               1.7826909782599061E-06
               3.8415425372996816E-03
              -1.0283400413754204E-03
              -1.7492824781174392E-04
              -1.0587639029921718E-03
               1.1174069758607685E-03
              -4.2353939233534853E-03
               2.0939658775375454E-03
              -7.6218875432353019E-04
               1.9492099025112590E-03
               6.6804136811805283E-04
              -3.7437288758023716E-04
              -6.4337981726199519E-04
              -6.0573229809600219E-04
              -2.1951839351618761E-04
              -1.8503694111012467E-03
               5.0731827897400859E-04
               2.3008805749645690E-03
               4.4376227582267570E-03
              -1.6401058996989904E-03
              -4.0224798673888092E-04
              -6.4994795510496094E-04
              -1.3815586036667060E-03
              -1.9160763871259805E-04
               3.3893554884944542E-03
               7.1099980254638330E-05
               3.9731651911667737E-04
               1.4618003135367778E-03
              -7.4559967233337517E-04
              -2.1810204662571159E-03
               3.0513990068772620E-03
              -1.9298360415034065E-03
               7.9773868524144549E-04
              -8.1834758742109232E-04
              -3.6391938895305423E-03
              -4.1437211724608489E-04
              -1.6767604824630806E-05
              -1.9985045681221495E-03
               2.2457428597212710E-03
               1.6420229417678886E-03
               1.0662082698912556E-04
              -3.1154846018291871E-03
              -1.0593273219363109E-04
               6.1689285131945727E-04
               5.0374924603888115E-03
              -2.4263682351292897E-03
              -9.5076761210678446E-04
              -1.0774035360316845E-03
               3.4916115366612562E-03
              -5.8713754982343152E-04
               4.5828382871185552E-03
               1.1530499339750962E-03
              -3.8010426057420585E-04
               6.5083503673217036E-04
               1.3403464300764420E-04
               3.5950506024544117E-03
              -7.7161053971558204E-03
               1.3865620922609277E-03
               6.3404532366910515E-04
               7.3952958412324776E-04
               2.9660788135313864E-04
              -1.2642846333870707E-04
               3.9829835466273205E-03
              -1.4550236975022451E-04
              -3.3754094373246398E-03
               9.1804636816308438E-04
               7.2805794989801425E-04
               3.7679033533335074E-03
               1.0475688952395060E-03
               1.3518578746667567E-03
              -2.1359338386671475E-03
              -2.0179807547669655E-03
              -2.5409195633915708E-04
              -2.5175149951364383E-03
              -6.5318268522587407E-04
              -2.3875181508523644E-04
              -1.8917814355973091E-04
              -1.8240407801340659E-03
               2.7732840421299090E-04
               1.3383038164857207E-03
               1.9677262405722196E-03
               1.0097671726018473E-03
               6.0976334524727406E-04
               4.6718385758162456E-05
              -1.3185538891287208E-03
               9.1869451829857340E-04
               1.7645836567212112E-03
              -4.9496133194193101E-04
              -2.8379856010781294E-03
               3.1073901066279953E-03
               6.1233018843765774E-04
               1.8110751083811115E-03
              -2.1448088328364394E-03
              -1.3607206968908885E-03
               1.4762277288367009E-03
               6.8562826352333139E-04
               2.1711090806840112E-03
              -2.2368914109276361E-03
              -2.1724892512008905E-03
               3.7457313697274023E-04
              -2.1456991192922012E-03
              -4.6385998541995082E-03
              -6.3518975499944174E-04
              -9.4964282285577494E-04
               1.8729986325111332E-03
               3.7501507173758877E-03
               4.0315500513976423E-03
              -5.7830057708270393E-05
              -5.4911662660488952E-03
               9.9610581541764069E-04
              -1.4372350562359237E-04
               5.7325080499670390E-05
               1.3712332217141077E-03
              -3.7621357723334730E-04
              -1.1894267112373474E-04
              -2.8311590378396756E-03
               7.6575397019459479E-04
               1.2025400667688120E-03
               5.2302901627776011E-04
               2.1622431886635998E-03
               1.1472284295123897E-04
              -6.7507661999052478E-04
               1.5620540187719341E-03
               6.8405713824222774E-04
              -1.2079536600229602E-03
               5.2580441005975411E-04
              -1.2569940183633809E-03
               1.5197105842293951E-04
              -1.5329860740423082E-03
               9.5766619336848228E-04
               1.1059177037451579E-03
              -1.4056497837492369E-03
               2.8667470653724555E-03
              -3.5614588963523231E-03
               7.6263194044372436E-04
              -5.5357641984816793E-03
               1.1220154722225077E-03
              -2.2600037752828735E-04
              -3.9249555834613238E-04
              -5.3319858458070798E-04
               1.1082076635314532E-03
              -1.7008179976034149E-04
               1.8228276940010836E-03
               1.4027736419007268E-03
              -2.5573743475302466E-03
              -6.6059769161032941E-04
              -1.0983256149719822E-03
               1.7398108255959513E-03
              -1.2647885058785821E-03
               3.9805836292934422E-03
              -1.3292058860280820E-03
               5.6375079665728172E-06
               2.4389093306225449E-03
              -4.2582841683653089E-03
               2.6343655477365493E-03
               5.7595287185020017E-03
              -2.0296300126509265E-03
               1.1397236724752168E-03
              -1.1882344206725574E-03
              -1.7917128137220682E-03
               3.8839530609012991E-03
              -1.4122756013364725E-03
               1.4384797618387363E-03
              -1.3102569010426095E-03
              -8.7802677039515800E-04
              -1.7165909135681161E-04
              -5.5036058516950157E-04
               6.8030400362641390E-04
              -3.0491073314445273E-04
               3.3487158837789258E-03
               1.0001128857493598E-04
               1.6188674528179699E-03
              -4.3168906226544813E-04
               7.5018270142825105E-04
               2.6403179052660384E-03
               1.1231076360376498E-03
              -1.9589128078471214E-03
               1.5555456417316055E-03
              -7.2968837948892556E-04
               9.8689656362467798E-05
               7.5249802568368217E-04
              -1.4291420388116258E-03
              -3.3531241029440082E-04
              -9.1607153879359391E-04
               7.5540554398426715E-04
               6.8161836624537294E-05
              -1.0579404557946662E-04
               4.6560082614930016E-04
               5.9095600103395364E-04
              -2.2519864323977332E-03
               6.1858501998154946E-04
               2.6150584545139364E-03
              -5.1372953812508289E-04
               6.3125247584724085E-04
              -2.4144144006542786E-03
              -1.1930760152218346E-03
              -2.7606228335851899E-03
              -4.3278234172622354E-04
               1.4234893995846698E-04
              -1.4525209326613356E-03
               3.4794321691204743E-03
               2.2827698245702277E-03
               6.3646988542632099E-04
               9.8767623547355845E-04
              -6.6541913207616445E-04
              -2.6242620708512364E-04
              -6.3158082223740628E-04
              -1.0410319005366357E-03
              -1.5447194437221070E-03
              -2.6711073547993716E-03
              -1.0338419310472620E-03
              -8.2139955983941127E-04
               1.0073611581644104E-03
              -1.5518427658948442E-03
               6.1874931276546710E-04
               1.6559315854719420E-03
              -5.1312886368367677E-03
              -1.3940712162425540E-03
               1.2365394033122174E-03
               1.4339172616050348E-03
               4.9565840677582901E-04
              -8.1444930132658052E-04
               4.1578038304832393E-03
               9.4389150630617557E-04
              -3.7601642635044764E-03
              -1.3200517618700196E-03
              -4.1372124763988192E-03
              -1.6009019407064540E-03
               9.8041641732983409E-05
               4.0731789567144796E-04
               2.5842289319570621E-04
               3.2244850186611117E-03
              -2.3985837009807506E-03
              -8.2683679007296361E-04
               1.5228616220429583E-03
               5.9097338604889452E-04
              -1.8726937199201842E-03
              -6.1321501483457819E-04
              -2.8594456199512392E-03
              -1.5678765474028001E-04
               1.0622387724297019E-03
               4.3347231131791395E-04
              -4.5634451291028597E-03
               1.5854899137692732E-03
               2.9547161593135767E-03
              -9.5262923160094142E-04
              -1.1936585980468410E-03
               1.5581390286622984E-04
              -1.4218178164935365E-03
               1.5224613333229987E-03
               9.8731075493977099E-04
              -3.5233044356464431E-03
               1.6405656120643784E-03
               2.0751646834400103E-03
               1.2461867670090861E-03
               1.5494200727430485E-03
               4.9046669242655940E-04
               4.6866213187456351E-03
               1.8610297001376871E-03
              -8.9758268805344079E-04
               1.6463430621351390E-03
              -2.5008824659125363E-03
              -4.1618150346699771E-03
               3.6817998682493270E-03
               4.2809360039269091E-04
               1.3055403390431026E-03
               4.0200347091285098E-04
               9.9915862985732731E-04
              -9.5927000976222436E-04
              -1.5086660666293410E-03
              -2.3437085679082737E-03
              -1.4933295413885024E-03
               9.6938501383025846E-04
               1.3798605140725555E-03
               8.5297064888226323E-04
              -1.3110331448866236E-04
               2.6395451115287369E-03
               2.6439948522517915E-03
              -1.4060427595739746E-03
              -9.4204045365289531E-04
              -3.7796877327523314E-04
               1.8567429334802549E-03
               3.1995920834071239E-03
               1.1666123247929770E-03
              -2.2110176995941452E-03
              -7.1168997299753502E-04
              -2.2002612449251906E-03
              -6.6187948187442099E-04
              -1.6330716148558603E-03
              -1.5942126089173497E-03
              -1.6900928098369248E-03
               5.3574149151726282E-04
              -2.3303591911960878E-03
               1.7224132557103029E-04
              -7.9307825695234071E-04
              -5.3964610853656598E-04
               3.6268847898909451E-03
              -8.3242725210138009E-04
              -7.5371848358183713E-04
               4.5287096138017938E-03
              -3.2399815520231664E-04
               2.7319887556804211E-04
              -1.2347941408347599E-03
              -1.2275098031140110E-03
               8.8231336394599814E-04
              -1.9480114881171556E-03
               2.0069942839917843E-03
               9.9749706993755810E-04
               9.1367326514950418E-04
              -1.3267950424086065E-03
               3.0766960999253565E-03
              -1.6138160816315877E-03
               3.4312750585381744E-03
              -4.2387197767591829E-04
              -1.6652264495284645E-03
              -4.4656186672063451E-03
               3.3697956436508376E-03
               2.9951180687592493E-03
               1.5161947830191727E-03
               2.7045313425571628E-04
               1.3426586172217026E-03
               1.4184595320103639E-03
               1.6688256432792778E-03
               4.1767640548538444E-04
              -8.7157184494428171E-03
               3.2912159920032926E-04
              -1.2413433855850238E-03
              -4.2750188683314400E-03
               3.3357411677269579E-04
               1.1842136701599630E-03
               1.0157124350685396E-04
              -3.5781348341012444E-03
               3.4824460833011051E-05
              -2.8403275123208642E-03
              -3.8209604308437929E-03
              -2.2340543733044842E-03
              -3.3675694522665583E-03
               2.9211718438903328E-04
              -1.2221826725484848E-03
              -1.4304841454995654E-04
              -5.9661980303514946E-03
               1.1085150516413813E-03
               4.0653096370663522E-04
              -2.0221188503258929E-03
               3.4620234801533904E-03
              -2.3182863855984027E-03
              -3.1249319878976422E-04
               2.4010886041320612E-03
              -8.1864608185803827E-04
              -2.9975037350878030E-03
              -8.0690456488018104E-04
              -8.0974238413619444E-04
               2.5822293079567449E-04
               3.7111198687975831E-03
              -3.6326657087348371E-03
              -6.2760214732591568E-04
               1.0826645266735947E-04
              -2.7740715049660884E-03
              -4.3824171225825591E-03
               7.6241154849672624E-03
              -5.0254875138287867E-04
              -2.9770876141208720E-03
               1.2836226282623948E-04
               2.1375938494298191E-03
              -1.2634725540698797E-03
              -1.9205006893252381E-03
               1.0635908126481876E-03
              -4.6436712471908722E-03
               1.0321200383550200E-03
              -7.0395482583731814E-04
               1.2967780427266249E-03
              -4.9249929505785807E-03
               2.1257424049783576E-03
              -1.7792403514343056E-03
               1.1876134067466087E-03
              -3.1023758208351842E-03
              -1.8158542701912556E-03
               6.6987748697731409E-04
               5.6107677050362828E-03
               3.3996892424306498E-03
              -7.0990363688119527E-03
              -2.1800116771744480E-03
              -2.0476159811063785E-03
               1.3920620303079466E-05
               1.1540531014757078E-03
               1.6751561264955464E-03
               3.6779941752108762E-04
              -3.2172547303484034E-03
               9.4443859083024326E-04
               5.6139117113508923E-04
              -5.0381684510816317E-04
              -2.4647312174548896E-03
               9.6754760637412130E-04
               2.0677203652418609E-03
              -3.0979488648022221E-03
              -5.7897523184884515E-04
               7.4532197526918616E-03
               5.0499573169517412E-04
              -2.7021591368495291E-03
               2.3632405073842821E-04
               3.6090877577311994E-03
              -1.4364410603452979E-03
               2.6685798107307565E-04
              -2.4492934836818272E-03
               1.0475814554683066E-03
              -2.1215657295668806E-03
              -1.5821708973805617E-03
              -1.3377959132464285E-03
               8.6799261266503637E-04
               1.5088372894784057E-03
               4.0536746471612204E-05
               1.5928808988572331E-03
              -2.5997626808779671E-03
               2.6775352940969230E-03
               5.8119193520290576E-05
               3.6483236717182511E-03
               1.2268447190702646E-03
               4.5412077193154377E-04
              -6.2564625701669926E-05
               9.8263392690494441E-04
               5.2469428476398777E-03
              -1.0902800537146906E-03
              -1.2733610123213937E-03
              -2.2575362999080204E-03
              -1.3188379942604478E-03
              -4.3558968888535811E-04
               1.8490904463315316E-04
              -1.2409889135584339E-03
              -5.5996816219118723E-04
               7.7593311191276565E-04
              -5.0749906227653559E-05
               1.0338254187701556E-03
              -1.8345038331990604E-03
               4.1541633377575730E-05
               3.4934040535401154E-03
               1.1353527540605116E-04
              -2.2890849081373863E-03
              -1.4138218003807673E-03
               1.3569197375793503E-05
              -2.5241534110538666E-03
               3.3139667869937620E-03
               3.8454714106438668E-04
               1.7342916935177894E-03
              -1.3185331045444837E-03
               5.5128857117634378E-04
              -1.7070861167593826E-03
               1.6009074548337251E-03
               2.8475728647334164E-04
               1.6790193412195757E-03
              -1.1261322034762811E-03
               8.0272293932146974E-04
               5.1755326220969044E-03
              -4.7328406194485249E-03
               1.0644088138952860E-04
               2.4933774852755166E-04
               9.0093509234338669E-04
               2.4655117871121676E-03
              -3.1787585146288264E-03
               5.1917638565685215E-04
               1.3692779584161504E-03
               7.1923599621753884E-04
              -6.5315604637263694E-03
               5.1942819933889885E-04
               5.0819911259873511E-04
               1.7197191586708078E-03
              -3.0989545924023430E-04
              -1.3972888442411286E-03
              -1.5292741141524891E-03
               2.9090912182062486E-03
               1.2309168049867529E-03
              -2.4836466513227262E-03
              -1.1855320991123672E-03
              -2.6113217217230313E-04
              -5.5469683391538312E-05
               7.9987073040085454E-04
              -3.0825599775767317E-03
               6.3189953073807459E-04
               6.5742327673770661E-04
              -1.8013261893790673E-03
               4.6293667729708430E-04
               5.6400237130546172E-04
               2.6120104957517558E-04
               2.6312249426650369E-03
               1.9799317452592162E-03
              -1.0681295997331669E-03
              -1.3471809743471330E-03
               5.1795137018758089E-05
               7.6257497495818951E-04
              -7.7286472510848883E-04
               1.6459141640466000E-04
              -2.8710781469517394E-03
              -5.9662021497650282E-04
               2.7410629242095348E-04
              -1.9065677874630282E-03
               3.5052174973853965E-03
              -2.8407987175416622E-03
               2.7037737245929174E-03
               2.5185786503893305E-03
               4.7853041708819733E-03
               4.9135020032940930E-04
              -6.2961225202681564E-04
              -3.9322607841263471E-03
              -4.2141504202937614E-03
               2.9008673527465985E-03
               2.7105403894478134E-03
               2.0957801503793884E-03
              -3.4829939071082503E-03
               5.2275474011963141E-05
               5.8923874988362130E-04
              -4.3762954378173490E-04
              -2.2272303562814108E-03
               1.5194478517193259E-03
               1.6389713658903728E-03
               5.7557162488514066E-03
              -3.4404530886243934E-03
              -2.3203263521657910E-03
         &END THERMOSTAT_ENERGY
         &RNG_INIT
Wiener process for Thermostat # 1        1 F T T  -5.1594232300253351E-01        1131297282.0        1211631740.0        2440609120.0         280351594.0        4169944131.0        2241857172.0             12345.0             12345.0             12345.0             12345.0             12345.0             12345.0             12345.0             12345.0             12345.0             12345.0             12345.0             12345.0
Wiener process for Thermostat # 2        1 F T T  -3.9952893432785613E-01        3537343306.0        4101078106.0        1787773489.0        1522398930.0        2453240089.0        2651583813.0        3692455944.0        1366884236.0        2968912127.0         335948734.0        4161675175.0         475798818.0        3692455944.0        1366884236.0        2968912127.0         335948734.0        4161675175.0         475798818.0
Wiener process for Thermostat # 3        1 F T T  -1.0439168462831926E-01        4074027307.0        3154243317.0        2632093967.0        3271467565.0        2371417742.0         986155232.0        1015873554.0        1310354410.0        2249465273.0         994084013.0        2912484720.0        3876682925.0        1015873554.0        1310354410.0        2249465273.0         994084013.0        2912484720.0        3876682925.0
Wiener process for Thermostat # 4        1 F T T   1.7999950733811224E-01        2358195365.0        3570083549.0        1326769659.0        1250257075.0         438492861.0        3340948192.0        2338701263.0        1119171942.0        2570676563.0         317077452.0        3194180850.0         618832124.0        2338701263.0        1119171942.0        2570676563.0         317077452.0        3194180850.0         618832124.0
Wiener process for Thermostat # 5        1 F T T  -1.6037984157473455E+00        2431351866.0        1897455294.0        2544042736.0        1024514237.0         482569460.0        1761159987.0        1597262096.0        3906379055.0        3312112953.0        1016013135.0        4099474108.0         275305423.0        1597262096.0        3906379055.0        3312112953.0        1016013135.0        4099474108.0         275305423.0
Wiener process for Thermostat # 6        1 F T T   1.0054307461153029E+00        1896829413.0         834456879.0        2745000633.0        1917437101.0        2044090030.0        1934137116.0          97147054.0        3131372450.0         829345164.0        3691032523.0        3006063034.0        4259826321.0          97147054.0        3131372450.0         829345164.0        3691032523.0        3006063034.0        4259826321.0
Wiener process for Thermostat # 7        1 F T T  -1.8174880281656693E+00        1522500563.0        1108792045.0        3420944752.0        3018584097.0        3871761464.0        2236113708.0         796079799.0        2105258207.0         955365076.0        2923159030.0        4116632677.0        3067683584.0         796079799.0        2105258207.0         955365076.0        2923159030.0        4116632677.0        3067683584.0
Wiener process for Thermostat # 8        1 F T T   1.1538593382850411E+00          48896210.0        3899903509.0        1881783467.0        2308026436.0         383343244.0        2367443883.0        3281794178.0        2616230133.0        1457051261.0        2762791137.0        2480527362.0        2282316169.0        3281794178.0        2616230133.0        1457051261.0        2762791137.0        2480527362.0        2282316169.0
Wiener process for Thermostat # 9        1 F T T   2.8788468630587605E-01        4241630646.0         991144752.0         355177975.0        1005962149.0        2335898887.0         650083612.0        3777646647.0        1837464056.0        4204654757.0         664239048.0        4190510072.0        2959195122.0        3777646647.0        1837464056.0        4204654757.0         664239048.0        4190510072.0        2959195122.0
Wiener process for Thermostat # 10       1 F T T   1.4795953232684680E+00        4231210077.0        1675597484.0        1615807535.0          64507541.0        2802770127.0        2171250065.0        4215590817.0        3862461878.0        1087200967.0        1544910132.0         936383720.0        1611370123.0        4215590817.0        3862461878.0        1087200967.0        1544910132.0         936383720.0        1611370123.0
Wiener process for Thermostat # 11       1 F T T  -2.9677903107341752E-02        3074773784.0        2139147906.0         665995322.0        1141510697.0          26627632.0        2378463195.0        1683636369.0         362165168.0         814316280.0         869382050.0         980203903.0        2062101717.0        1683636369.0         362165168.0         814316280.0         869382050.0         980203903.0        2062101717.0
Wiener process for Thermostat # 12       1 F T T  -3.8532394411429438E-01        3802949763.0        2351463086.0         901084535.0        1712023518.0        1331809143.0        1923931590.0         272317999.0         166758548.0         310112982.0         201045826.0        1680231254.0         118290799.0         272317999.0         166758548.0         310112982.0         201045826.0        1680231254.0         118290799.0
Wiener process for Thermostat # 13       1 F T T  -3.3863394446829803E-01        2895787483.0        2919055390.0         371560780.0        3064381019.0        2845655576.0        3300960890.0        2245755202.0        1652682525.0        2865544364.0         721509566.0         209733568.0         592362218.0        2245755202.0        1652682525.0        2865544364.0         721509566.0         209733568.0         592362218.0