 # Version information for this restart file 
 # current date 2024-11-21 18:30:33.287
 # current working dir /scratch/work/courses/CHEM-GA-2671-2024fa/students/jw8872/comp-lab-class-2024/Week12-IntroAIMD/Runs/Water
 # Program compiled at                              Sat Dec 12 18:27:15 EST 2020
 # Program compiled on                                         cs001.nyu.cluster
 # Program compiled for                                                nyu-intel
 # Source code revision number                                       git:8c64c6e
 &GLOBAL
   PRINT_LEVEL  LOW
   PROJECT_NAME water_aimd_1ns_every0.5fs
   RUN_TYPE  MD
   WALLTIME 21600
 &END GLOBAL
 &MOTION
   &GEO_OPT
     OPTIMIZER  BFGS
     MAX_ITER  100
     MAX_DR     3.0000000000000001E-03
     &BFGS
     &END BFGS
   &END GEO_OPT
   &MD
     ENSEMBLE  NVT
     STEPS  2000
     TIMESTEP     4.9999999999999994E-01
     STEP_START_VAL  161
     TIME_START_VAL     8.0500000000000071E+01
     ECONS_START_VAL    -1.1023558357480233E+03
     TEMPERATURE     3.0000000000000000E+02
     &THERMOSTAT
       TYPE  GLE
       REGION  MASSIVE
       &GLE
         NDIM  5
         A_SCALE     1.0000000000000000E+00
         A_LIST     1.8595758612559999E+02    2.7263853498399998E-01    1.1526100454610001E+01   -3.6414578262600003E+01 \
             2.3173375816020001E+02
         A_LIST    -2.7809524712060002E-01    8.5951591808710006E-05    7.2189048017650004E-01   -1.9844539343859999E-01 \
             4.2409257583420001E-01
         A_LIST    -1.4825808131210000E+01   -7.2189048017650004E-01    1.3590902121280000E+00    5.1498896280349999E+00 \
            -9.9949268450990001E+00
         A_LIST    -1.0372189126880000E+01    1.9844539343859999E-01   -5.1498896280349999E+00    2.6661910891169999E+01 \
             1.1507715495310000E+01
         A_LIST     2.1801346360420001E+02   -4.2409257583420001E-01    9.9949268450990001E+00   -1.1507715495310000E+01 \
             3.0958394565589998E+02
         &THERMOSTAT_ENERGY
              -1.1411555043508088E-03
               2.1333206549597715E-03
              -2.0817489510760131E-04
              -3.0871824744515912E-03
              -1.4663764301289315E-03
               3.3866151451716134E-03
              -2.4913621244622773E-03
               3.0481761899593413E-04
               4.3078394035392124E-03
              -2.8999004357246933E-03
               3.2949025134026799E-03
               1.0284448891746012E-03
               1.9645062964999353E-03
              -1.4648300090509979E-03
               2.1562023965253951E-04
              -2.5813007506690685E-03
               2.4369273060430669E-03
              -2.8784558142681588E-03
               2.5398214952817924E-03
              -6.6534018790317267E-04
              -1.3629941006620266E-03
               4.6544813109372510E-04
               8.6932016266630716E-06
               3.2431321612528857E-03
              -3.6465415804511556E-03
              -1.3418591546714871E-03
               3.4606890474708349E-03
               1.0840973197573859E-03
               6.1189523963692922E-04
               1.1734571066109880E-04
              -5.9688005178138641E-04
              -2.1021561061561004E-03
               4.8669164213163121E-04
               2.3879424455989949E-03
              -2.8421024556828534E-03
               2.5361418722764902E-03
               2.5615919488373350E-04
              -7.4429898479582497E-05
              -2.0760709519219175E-04
               1.9169568763743911E-03
               1.9011737533836619E-04
              -2.8271749840533007E-03
              -1.2530800831426498E-03
               2.0701158422261239E-03
              -1.2078129276373727E-03
               6.0115727940313968E-04
              -6.9957218626057833E-04
               3.9894219784254416E-04
              -2.1091584801577164E-03
              -8.7011357584564834E-04
               2.2581717542305966E-03
               4.3189224120487716E-04
              -7.7338787812125957E-04
              -3.2981010440737949E-04
              -2.4444245915385509E-03
              -6.9053952520303199E-04
              -1.8320599078112203E-03
               1.2821916077822436E-03
               2.7622280050651248E-03
              -3.1887999670927461E-03
              -1.0416451267135937E-04
               3.5414942458295456E-03
              -1.0719251869527543E-03
              -3.3794037865357888E-04
              -7.7992062702492778E-04
               1.2075346745778781E-03
              -4.5422996108648583E-03
               2.3019700075836082E-03
              -6.4459011533769773E-04
               1.9453022310454114E-03
               1.2045144169437524E-03
              -1.1744018752636207E-04
              -9.6245147453615702E-04
               6.7751721809853553E-04
              -1.6834298592922965E-04
              -1.8702514378744414E-03
               5.5650811199431957E-04
               1.1024701996435219E-03
               4.3333063936564619E-03
              -1.5140967584167755E-03
               1.2076715641922016E-04
              -9.0416945518786052E-05
              -1.1208280426649208E-03
              -2.4192194571150897E-04
               3.2943553085599893E-03
               2.4159021808612991E-05
               1.2397429146881966E-03
               1.2320096704937433E-03
              -3.5014702420991476E-05
              -2.1743088368109771E-03
               3.2181449796037441E-03
              -2.2075276882799677E-03
               6.7233832627273276E-04
              -2.7478936929677713E-04
              -3.7816110294414218E-03
              -3.2516338824235260E-04
               1.9023621311366245E-06
              -9.3663824178592228E-04
               1.8652547468452298E-03
               1.3109370031600550E-03
               8.3267635361412043E-05
              -2.8981429643084068E-03
               6.7130797189578784E-05
               7.7347973479724897E-04
               5.4367362779488776E-03
              -2.2783270836144146E-03
              -1.2164838175355748E-03
              -1.0300146094073435E-03
               3.4681147053737130E-03
              -3.8826955771177965E-04
               3.6571206816778021E-03
               1.0301487595650554E-03
              -3.3651553884273873E-04
               8.2739055219907261E-04
               2.2320202407081341E-04
               3.4188623869080025E-03
              -7.6209432157114208E-03
               9.0361565284562671E-04
               6.1468259824020864E-04
               9.9852150100144740E-04
               3.6842734412185227E-04
              -2.7912000650036350E-04
               4.0154912415641337E-03
              -5.3870349942836051E-04
              -3.7080544053788040E-03
               9.2897739636091717E-04
               1.0491797528605347E-03
               3.6859394583849338E-03
               1.0316729851164240E-03
               1.3511382519237815E-03
              -1.9474774046500452E-03
              -1.9100998088375093E-03
              -3.4097264093320618E-04
              -2.4137908071611707E-03
              -1.2556343226880849E-03
              -2.5611725959397429E-04
              -1.2872566725731553E-04
              -1.8486922055481979E-03
               1.9395682561459929E-04
               1.5913633973040934E-03
               2.8189501959514094E-03
               1.7055311960130907E-03
               6.2743208260619828E-04
               1.9595531595619707E-04
              -1.8382508526361291E-03
               1.0254146619366011E-03
               1.5728615709119306E-03
              -5.0703552339818078E-04
              -2.7040819577302424E-03
               3.1785053364470441E-03
               5.1638949343326714E-04
               1.7759709859122279E-03
              -1.9564822982627906E-03
              -1.0845473320736506E-03
               1.4157629900943790E-03
               4.0076577211555896E-05
               2.1104322411584836E-03
              -1.2667193780734861E-03
              -2.0412323172524466E-03
               4.0648971690455688E-04
              -2.3689333234488130E-03
              -4.2474262277125818E-03
              -6.5286850204706660E-04
              -7.2443274468589867E-04
               1.9061358645052397E-03
               3.6165136811466929E-03
               3.8742941074278400E-03
               1.1840803902090169E-05
              -5.1777998976770094E-03
               8.4028229451962909E-04
               2.3008592092861645E-04
               1.0682964643353518E-04
               1.1718290306484318E-03
              -7.7617710701227141E-04
              -7.9197397543147644E-04
              -2.1218682760984070E-03
               8.2470477249654123E-04
               1.3367489760431450E-03
               4.0448586108235169E-04
               1.9145320138946697E-03
              -3.2876265250843836E-04
              -6.5712537795820493E-04
               1.5552169880517250E-03
               7.5332728926803989E-04
              -1.0849293496300746E-03
               3.1362430684682657E-04
              -1.6905150978038911E-03
               1.7465103661833505E-04
              -8.7973464620229433E-04
               9.0047207131854171E-04
               1.0954756843489255E-03
              -1.0541546692530307E-03
               3.2856429097117938E-03
              -3.3654679195398319E-03
               8.1243816757941645E-04
              -5.6623920042987519E-03
              -1.5816351709880888E-04
              -3.2667614171900310E-04
              -2.5706526551313069E-04
              -6.4617537787042649E-04
               1.2684189204613578E-03
              -2.9290080672028456E-04
               1.7969770945494134E-03
               1.4234778164155294E-03
              -2.5889231486020633E-03
              -8.8008300014480630E-04
              -1.0096176128822276E-03
               1.7234234783560308E-03
              -1.2624317821979525E-03
               4.0821389421469090E-03
              -1.2786600595989578E-03
              -3.9934658776197979E-04
               2.3682743897918694E-03
              -4.2881379877793393E-03
               2.6668792011817913E-03
               5.7326621818205407E-03
               3.6583672772069580E-05
               1.4595761366594485E-03
              -1.3253189368518953E-03
              -1.5944584356384858E-03
               3.7941847360977209E-03
              -1.1610720527701246E-03
               1.1430637775963995E-03
              -8.5513935040953156E-04
              -8.2219500299721441E-04
               3.2536014415664427E-04
              -1.4150221563074622E-04
               7.4255042924023214E-04
              -5.5379634178867468E-04
               3.4666876849261253E-03
               1.3209329315704496E-05
               2.0803027316887088E-03
              -5.6687058902347813E-04
               1.0636932312652323E-03
               1.9555802853327988E-03
               1.1078447732786973E-03
              -1.9772674496783475E-03
               1.6982453876865646E-03
              -7.1733900997839354E-04
              -4.5488562780247164E-05
               7.4830589927266458E-04
              -1.4207674601782643E-03
              -1.8747864887706375E-03
              -8.4677080486018799E-05
               1.1846149538050777E-03
               4.2989143087822563E-04
              -3.3237001583350672E-04
               8.1056624335699057E-04
               5.9494405425244512E-04
              -2.0779857571899618E-03
               3.8596341164409334E-04
               2.6132803566386261E-03
              -4.9831753051986466E-04
               5.7778410256357224E-04
              -2.5013741225032231E-03
              -6.9296967547723739E-04
              -2.7784454316518020E-03
              -3.1509521673620726E-04
               3.6409618640966657E-04
              -1.4644043024681409E-03
               3.4153992989337375E-03
               2.2902956549507398E-03
               1.1592594407682901E-03
               9.6871291164473360E-04
              -7.0344248716712140E-04
              -2.6175211321490303E-04
              -6.5360517462782774E-04
              -1.6942528572991191E-06
              -1.4380112415072876E-03
              -3.3038017142172772E-03
              -7.5296049542963493E-04
              -7.8685733088749163E-04
               1.2788968476511074E-03
              -1.6325307807549694E-03
               9.7345095087219191E-04
               1.5568881222369907E-03
              -4.8741772505340591E-03
              -1.3795882962347418E-03
               1.8285790843209034E-03
               6.8490304747689942E-04
               5.8340716390101871E-04
              -8.7454711279030329E-04
               4.1631124449865243E-03
               3.8976242804931213E-04
              -3.6596727648097187E-03
              -1.0747425861019732E-03
              -4.5803782457992537E-03
              -2.1274243237137383E-03
              -1.2514800263971663E-04
              -3.6111908960078385E-04
               2.4906618153801215E-04
               3.6031352691130039E-03
              -2.3441237704397841E-03
              -7.6614516743793112E-04
               1.5725210288345568E-03
               1.1077578080341004E-03
              -1.7766722580388051E-03
              -8.3966926737023709E-04
              -2.7338823614535242E-03
              -2.2978020229294255E-04
               8.1530349931311350E-04
               4.2715205034182184E-04
              -4.5292826125559755E-03
               2.1357880602285101E-03
               3.4749072024131784E-03
              -8.4928321048139516E-04
              -1.0156715467549403E-03
               8.9826867680261994E-06
              -1.3306114805591203E-03
               1.5531729774165637E-03
               5.9037249430947338E-04
              -3.6603539201014454E-03
               2.3734525512307974E-03
               2.1385221066869569E-03
               1.1246919043095889E-03
               1.9494849133318698E-03
               5.7941151202642934E-04
               4.6671985403084065E-03
               1.8688035371537822E-03
              -1.0392302208187707E-03
               1.4258076628148823E-03
              -2.1825368861671992E-03
              -4.1670093122038437E-03
               3.5812928910507057E-03
               4.5367224866265906E-04
               1.3080542355059009E-03
               2.8001471368317048E-04
               1.0673870140066950E-03
              -2.0374507384344331E-03
              -1.4580190991749981E-03
              -2.3361102886464125E-03
              -1.4807322862349503E-03
               8.2194828638646757E-04
               1.6682594705428109E-03
               1.1217453676282759E-03
              -8.5807704141604684E-06
               2.1994721200870463E-03
               2.5338824244161341E-03
              -1.0759776175365068E-03
              -8.8362779778548568E-04
              -2.3348085264423830E-04
               1.4294666472588113E-03
               3.1194055313745655E-03
               1.1914048997937149E-03
               1.9196697469542941E-04
              -4.9489172363302808E-04
              -2.5293343312769545E-03
              -1.5752122390921591E-03
              -1.9091342755360940E-03
              -1.6057461068129774E-03
              -1.5637182506520633E-03
              -5.3570376915468309E-05
              -2.2908665904991057E-03
               1.8077391669557740E-04
              -8.1750510811024412E-04
              -6.0630343367442979E-04
               3.4674990052847442E-03
              -5.8800438575924046E-04
              -8.7960216687727735E-04
               4.6576206676208513E-03
              -1.7717964423090394E-04
               2.9696238986032768E-04
              -1.2579228015774941E-03
              -1.9396363874459913E-03
               1.2244055353834934E-03
              -6.2023385829921087E-04
               2.0238486142543670E-03
               9.8023449501193874E-04
               9.8829243028222629E-04
              -1.8167789994592649E-03
               3.0552073216393006E-03
              -1.6475031347859281E-03
               3.4125785083776897E-03
              -4.7050266468217988E-04
              -1.7177020819876521E-03
              -4.6838132219887262E-03
               3.1016971758792214E-03
               2.6837642726783729E-03
               1.3657017545087120E-03
               7.8761105943742034E-05
               1.1577609008775471E-03
               1.3629940849543306E-03
               1.8529681351262528E-03
               3.0519905662577398E-04
              -8.5516430012582672E-03
               5.5446476142646372E-06
              -1.0657957750734252E-03
              -4.3067543283789840E-03
               4.6012582576838849E-04
               1.2054054144454989E-03
               6.6137309374164621E-04
              -3.6200070686878355E-03
               4.8919084859178228E-07
              -3.1145421903611076E-03
              -3.3302723575076481E-03
              -2.1319729168883033E-03
              -3.5470714782934337E-03
               1.5326226256843667E-03
              -1.1022776052620211E-03
              -3.8676186747982290E-04
              -4.8657208528814274E-03
               1.2891168122515977E-03
               2.8696140419893254E-04
              -2.8634818346636795E-03
               3.2187188697566970E-03
              -2.0160535056355866E-03
              -2.7780244021534623E-04
               2.6807169015333346E-03
              -1.0399182837318058E-03
              -3.7938321758352583E-03
              -8.6647249647629949E-04
              -1.2036856713025046E-03
               6.7342130609783848E-04
               4.0589702844048801E-03
              -4.2245152745433020E-03
              -5.8241263029480130E-04
               4.1590414235830384E-05
              -2.7910881641941823E-03
              -3.7752947337371880E-03
               7.3080298812441243E-03
              -5.3087730775615695E-04
              -2.1843244836333786E-03
               7.9352961828057218E-05
               2.5109018833855720E-03
              -1.2570625008256695E-03
              -2.0407895841896245E-03
               1.1393988880640275E-03
              -5.2301057389721912E-03
               1.0946226822175190E-03
              -7.1443370324848331E-04
               1.0290646526802281E-03
              -5.0084483468579794E-03
               2.2017507941812725E-03
              -1.4352975075086177E-03
               1.1921570399795398E-03
              -2.6782481243657003E-03
              -2.1881161839667255E-03
               7.2362322467694898E-04
               5.5574193463305355E-03
               2.9842931645149631E-03
              -6.8780739546688051E-03
              -2.2802830011158549E-03
              -2.2621884879992366E-03
               9.3372567339329419E-04
               1.1259228740424679E-03
               2.6966361839069882E-03
              -1.2450253871846011E-04
              -3.6781539929599295E-03
               1.1214116848313649E-03
               5.8371144993428134E-04
              -3.2765822543663918E-04
              -2.3326573312054282E-03
               3.2413750319632744E-04
               2.3460396701749132E-03
              -3.3122329064847393E-03
              -7.0318508167393015E-04
               7.5149242577652389E-03
               2.7580551415104710E-04
              -2.6361452008835350E-03
               1.2664158124954999E-04
               3.6592473488437252E-03
              -1.0179101482769568E-03
               1.4349903633779782E-04
              -2.5646148454641139E-03
               9.3024497737309911E-04
              -2.5026400560622299E-03
              -1.5821685376672878E-03
              -1.4289167014328611E-03
               8.9481382834816572E-04
               1.5469041370700036E-03
               2.3327065081380472E-05
               1.3640020234423939E-03
              -2.5708087256616180E-03
               2.7175303096891711E-03
               1.8609237274387858E-04
               3.6547490113037493E-03
               5.4254140106785092E-04
               4.3701852658934793E-04
              -1.4519208526912183E-04
               1.1364983182828641E-03
               5.2892149057234454E-03
              -1.4206988787229431E-03
              -1.2679935096848506E-03
              -2.6523908484522279E-03
              -1.3203518169148389E-03
              -4.8655849304100771E-04
               2.9158972760640419E-04
              -1.1770483197638725E-03
              -4.4280151460970163E-04
               6.5567090113643177E-04
               8.1567736666906431E-05
               8.7375230040597309E-04
              -1.5927158870441794E-03
               8.4171632340582475E-04
               3.8476139099987375E-03
              -2.3663645500065556E-04
              -2.4078648207966052E-03
              -1.0994876930290926E-03
              -3.2991155493137354E-04
              -2.4379698902785669E-03
               3.4163119360113834E-03
               5.2358943211906045E-04
               1.7586983906281728E-03
              -1.2323909079565735E-03
               4.4866149068624987E-04
              -1.8820636870626472E-03
               1.8106973428662204E-03
               5.0118905881163761E-04
               1.7056358278276303E-03
              -8.0990423124950779E-04
               7.7167093266179102E-04
               5.3041881694674779E-03
              -5.1251505387949949E-03
               8.4880502567952697E-04
               7.8624387894068358E-05
              -2.6635144990369000E-05
               2.3946960590276048E-03
              -2.7274966646054495E-03
               9.7993569853841789E-05
               1.5110851508137056E-03
               7.0142426136809847E-04
              -5.9067257692437319E-03
               5.0778867352092535E-04
               4.4750928489426846E-04
               1.3987375437864518E-03
              -1.6697144598614382E-04
               7.1836759080291281E-05
              -1.7409466502822952E-03
               2.8483112549588536E-03
               1.3069407646722504E-03
              -3.1273114838694270E-03
              -9.2531060062303128E-04
              -3.8600398754076796E-04
              -1.3025332445864375E-04
               8.4771939746363929E-04
              -3.0869382650209410E-03
               1.2399167428072443E-03
               4.6802406361208158E-04
              -1.5465164480271245E-03
               7.8000967113828765E-04
               2.4937078864540203E-04
               2.0428178099471793E-04
               2.5509795524906779E-03
               1.9587247365704828E-03
              -1.0601076419716805E-03
              -6.5182277212006725E-04
              -5.9281732641809377E-04
               5.2452116355812962E-04
              -6.9300490055182083E-04
              -3.9577426772864719E-05
              -2.8555871972948781E-03
              -7.2255314159465724E-04
               2.3523173156538791E-04
              -1.9349295287460911E-03
               3.4984711780496952E-03
              -2.6851247516307261E-03
               2.7072371483155191E-03
               2.7226803749028118E-03
               4.9936237454657924E-03
               4.7140560343718677E-04
              -5.9816969627292447E-04
              -3.5014710009979720E-03
              -3.9022633680177408E-03
               4.1814909805064316E-03
               2.7898574822424046E-03
               1.9336990300207124E-03
              -3.5356374814824627E-03
              -7.4897345023982703E-06
               6.1997813110060518E-04
              -6.2325887365421702E-04
              -2.2723202500322440E-03
               1.6905602083714245E-03
               1.3912766354607919E-03
               5.6781481011445485E-03
              -3.2042661148393749E-03
              -2.2962299209554390E-03
         &END THERMOSTAT_ENERGY
         &RNG_INIT
Wiener process for Thermostat # 1        1 F T T   1.5496579862409965E+00        3951766169.0         463623786.0          89607559.0        1849103419.0        1471882714.0        1413374995.0             12345.0             12345.0             12345.0             12345.0             12345.0             12345.0             12345.0             12345.0             12345.0             12345.0             12345.0             12345.0
Wiener process for Thermostat # 2        1 F T T  -1.5773798268479713E+00        1793572569.0        2935606629.0         604968262.0        3878247125.0        1216360871.0        3737245514.0        3692455944.0        1366884236.0        2968912127.0         335948734.0        4161675175.0         475798818.0        3692455944.0        1366884236.0        2968912127.0         335948734.0        4161675175.0         475798818.0
Wiener process for Thermostat # 3        1 F T T   1.6839435531398956E+00        3035020822.0        3794140698.0        3438440324.0        1170441031.0        1215339324.0        4194061186.0        1015873554.0        1310354410.0        2249465273.0         994084013.0        2912484720.0        3876682925.0        1015873554.0        1310354410.0        2249465273.0         994084013.0        2912484720.0        3876682925.0
Wiener process for Thermostat # 4        1 F T T  -1.0742430749590428E+00         176232029.0        3468060340.0        2438115328.0        1498458514.0        2911795859.0        2806569478.0        2338701263.0        1119171942.0        2570676563.0         317077452.0        3194180850.0         618832124.0        2338701263.0        1119171942.0        2570676563.0         317077452.0        3194180850.0         618832124.0
Wiener process for Thermostat # 5        1 F T T   1.2817672065009250E-01        2734393252.0        3900182603.0        1890141410.0        2078506539.0        1456263202.0         234557936.0        1597262096.0        3906379055.0        3312112953.0        1016013135.0        4099474108.0         275305423.0        1597262096.0        3906379055.0        3312112953.0        1016013135.0        4099474108.0         275305423.0
Wiener process for Thermostat # 6        1 F T T   1.7366686079905569E-01         287920690.0        4205971602.0         611154314.0        2729034046.0        1743996067.0        1379934785.0          97147054.0        3131372450.0         829345164.0        3691032523.0        3006063034.0        4259826321.0          97147054.0        3131372450.0         829345164.0        3691032523.0        3006063034.0        4259826321.0
Wiener process for Thermostat # 7        1 F T T   1.1755850930112177E+00        1021010541.0        3955217496.0        4216336878.0        4268074729.0         895818837.0        3535069117.0         796079799.0        2105258207.0         955365076.0        2923159030.0        4116632677.0        3067683584.0         796079799.0        2105258207.0         955365076.0        2923159030.0        4116632677.0        3067683584.0
Wiener process for Thermostat # 8        1 F T T  -9.3606269795076880E-01        1339711080.0        1834896964.0         559643849.0        1575183388.0         663205482.0        3338601082.0        3281794178.0        2616230133.0        1457051261.0        2762791137.0        2480527362.0        2282316169.0        3281794178.0        2616230133.0        1457051261.0        2762791137.0        2480527362.0        2282316169.0
Wiener process for Thermostat # 9        1 F T T  -1.5120704607076862E-01         491109382.0        2946464276.0          42006671.0        2297526903.0        1075442588.0        3586335476.0        3777646647.0        1837464056.0        4204654757.0         664239048.0        4190510072.0        2959195122.0        3777646647.0        1837464056.0        4204654757.0         664239048.0        4190510072.0        2959195122.0
Wiener process for Thermostat # 10       1 F T T  -4.9285137678974994E-02        1954943621.0        2331500511.0         376761674.0        2447186798.0         301911048.0          43966666.0        4215590817.0        3862461878.0        1087200967.0        1544910132.0         936383720.0        1611370123.0        4215590817.0        3862461878.0        1087200967.0        1544910132.0         936383720.0        1611370123.0
Wiener process for Thermostat # 11       1 F T T  -5.2931830414144909E-01        2779560698.0         268357839.0        2694615619.0        3676061174.0          15791170.0         342944039.0        1683636369.0         362165168.0         814316280.0         869382050.0         980203903.0        2062101717.0        1683636369.0         362165168.0         814316280.0         869382050.0         980203903.0        2062101717.0
Wiener process for Thermostat # 12       1 F T T  -9.2827557030849694E-01        4291438018.0        2394665614.0         775967939.0        3251146081.0        1523080906.0        1556925387.0         272317999.0         166758548.0         310112982.0         201045826.0        1680231254.0         118290799.0         272317999.0         166758548.0         310112982.0         201045826.0        1680231254.0         118290799.0
Wiener process for Thermostat # 13       1 F T T   3.7452201603609464E-01        1357458448.0        1537394574.0         385381538.0         191392164.0        3536116764.0        1139691912.0        2245755202.0        1652682525.0        2865544364.0         721509566.0         209733568.0         592362218.0        2245755202.0        1652682525.0        2865544364.0         721509566.0         209733568.0         592362218.0