 # Version information for this restart file 
 # current date 2024-11-21 18:33:55.971
 # current working dir /scratch/work/courses/CHEM-GA-2671-2024fa/students/jw8872/comp-lab-class-2024/Week12-IntroAIMD/Runs/Water
 # Program compiled at                              Sat Dec 12 18:27:15 EST 2020
 # Program compiled on                                         cs001.nyu.cluster
 # Program compiled for                                                nyu-intel
 # Source code revision number                                       git:8c64c6e
 &GLOBAL
   PRINT_LEVEL  LOW
   PROJECT_NAME water_aimd_1ns_every0.5fs
   RUN_TYPE  MD
   WALLTIME 21600
 &END GLOBAL
 &MOTION
   &GEO_OPT
     OPTIMIZER  BFGS
     MAX_ITER  100
     MAX_DR     3.0000000000000001E-03
     &BFGS
     &END BFGS
   &END GEO_OPT
   &MD
     ENSEMBLE  NVT
     STEPS  2000
     TIMESTEP     4.9999999999999994E-01
     STEP_START_VAL  163
     TIME_START_VAL     8.1500000000000071E+01
     ECONS_START_VAL    -1.1023558357480233E+03
     TEMPERATURE     3.0000000000000000E+02
     &THERMOSTAT
       TYPE  GLE
       REGION  MASSIVE
       &GLE
         NDIM  5
         A_SCALE     1.0000000000000000E+00
         A_LIST     1.8595758612559999E+02    2.7263853498399998E-01    1.1526100454610001E+01   -3.6414578262600003E+01 \
             2.3173375816020001E+02
         A_LIST    -2.7809524712060002E-01    8.5951591808710006E-05    7.2189048017650004E-01   -1.9844539343859999E-01 \
             4.2409257583420001E-01
         A_LIST    -1.4825808131210000E+01   -7.2189048017650004E-01    1.3590902121280000E+00    5.1498896280349999E+00 \
            -9.9949268450990001E+00
         A_LIST    -1.0372189126880000E+01    1.9844539343859999E-01   -5.1498896280349999E+00    2.6661910891169999E+01 \
             1.1507715495310000E+01
         A_LIST     2.1801346360420001E+02   -4.2409257583420001E-01    9.9949268450990001E+00   -1.1507715495310000E+01 \
             3.0958394565589998E+02
         &THERMOSTAT_ENERGY
              -1.1118097173890029E-03
               1.3113777270186496E-03
              -1.0452251209577650E-07
              -3.0850893123968545E-03
              -1.0634499132359363E-03
               3.5783531350945018E-03
              -2.6910568774545889E-03
               7.3082754422020002E-04
               4.7011323548320468E-03
              -2.5729716257167339E-03
               3.4175222581965367E-03
               1.0795834569334800E-03
               2.0958217616515464E-03
              -1.4125203305307308E-03
               2.9769821484371703E-04
              -2.4786733622730495E-03
               2.7502171462298192E-03
              -3.1559948517461060E-03
               2.3995097037951196E-03
              -7.0278673616449606E-04
              -1.0584368021379501E-03
               6.3222327986047953E-04
              -1.8621541001019118E-04
               3.4845960396256604E-03
              -3.3151338207725914E-03
              -1.5497157028139842E-03
               3.5988502018030389E-03
               7.5450168198364000E-04
               5.5689382798582978E-04
              -5.2128734140028689E-04
              -6.4760446619516578E-04
              -2.0419172838302348E-03
               1.0953536863629876E-03
               2.3171206113867869E-03
              -2.4474647804999137E-03
               2.3321303756171302E-03
               2.3649928542153660E-04
              -2.4399009199403227E-04
              -4.9845273371014985E-04
               1.9479372699108537E-03
               1.5238981772660844E-04
              -2.6619276212000321E-03
              -1.4928636160950772E-03
               2.6594145172305740E-03
              -1.6321368490307779E-03
               9.2856336286315747E-04
              -1.0422699358473341E-03
               3.8572998285918739E-04
              -6.7681767029099363E-04
              -7.0483047720419428E-04
               2.2669895478622084E-03
               4.8940703201093316E-04
              -1.0404326415415751E-03
              -5.5953805703436773E-04
              -2.3168423594334378E-03
              -1.3612026571703040E-03
              -1.4289466187211968E-03
               1.6529936095339632E-03
               2.9375677341585220E-03
              -3.9888799797478079E-03
              -8.4377442366280605E-05
               3.9979812814964679E-03
              -8.8784695552337827E-04
              -6.7114724940717176E-04
              -7.8782136866762254E-04
               1.2079267571647825E-03
              -4.3263579453133019E-03
               2.3292513940745261E-03
              -1.5303256748301413E-03
               1.9062366973205671E-03
               1.1555727871518642E-03
              -1.0627132803367793E-04
              -3.0381343629837798E-03
               1.0623142663418073E-03
              -2.2698447465181732E-04
              -1.8257249638457258E-03
               4.6875713110909530E-04
               2.5700789881192773E-03
               3.7117840929109056E-03
              -1.2259517397716370E-03
               2.3073754502758021E-04
              -4.1884513670346332E-04
              -1.2289650724467288E-03
              -2.6488966836378996E-04
               3.3698425889613563E-03
               1.8399742581274859E-04
               1.8830337043905078E-03
               1.4826201361708027E-03
               4.9818994218617024E-04
              -1.8392457950819391E-03
               3.0884075999831700E-03
              -2.0124225607200791E-03
               8.9305438512896291E-04
              -2.7471820618953964E-04
              -3.7309800973663759E-03
               4.9905126173479674E-04
              -3.0952383477862955E-04
               6.3381995154948622E-04
               1.2017860349447405E-03
               1.6508375754774836E-03
               1.2569906132508870E-04
              -2.1968960977986232E-03
              -2.2327750672038597E-04
               6.7802093529490065E-04
               5.3472473224843216E-03
              -2.2629903899625495E-03
              -6.0943537628733730E-04
              -1.4668275271169057E-03
               3.0049102364972050E-03
              -6.0221111919148596E-04
               4.8735689338552579E-03
              -7.1897586136199275E-05
              -3.3925625688700848E-04
               9.1107143286621266E-04
              -1.0612740158479276E-03
               3.6962712367493776E-03
              -7.6890676903128875E-03
               6.9990684752225976E-04
               6.3918862468260475E-04
               1.3710332300518244E-03
               3.2174414920062777E-04
               1.5831443723752733E-05
               3.3393321283662807E-03
              -1.6490066381131855E-03
              -3.8073787515052891E-03
               9.5598338844274432E-04
               9.9156121078665610E-04
               3.8806795189951829E-03
               8.0300296246086646E-04
               4.6148051187817088E-04
              -2.2241709406335022E-03
              -2.0136802091076851E-03
              -1.2368506705193270E-04
              -2.3482946607512271E-03
              -5.3048672697657219E-04
              -6.7275979206461094E-04
              -2.4250011778113330E-04
              -2.0259034077655925E-03
               2.1373924080733063E-04
               1.4416045893048410E-03
               2.6164758547368881E-03
               1.9621986693450304E-03
               5.8702603941485651E-04
               8.8251928211417416E-06
              -1.8577594455011710E-03
               9.4661105201642023E-04
               1.4813238542756464E-03
              -1.8690162540619427E-03
              -2.5792607851452920E-03
               3.3936162921074705E-03
               4.1628921489521319E-04
               1.8707939973806780E-03
              -1.9453654258617399E-03
              -4.3590894056451856E-04
               1.2654447326626581E-03
               7.3045381731621606E-04
               1.9254039441626175E-03
               4.5996217150210891E-04
              -2.0361225524119920E-03
              -2.9782112735716608E-04
              -2.2045752240511885E-03
              -4.5734434182425577E-03
              -7.1397567057698657E-04
              -1.3736994515637515E-04
               2.3050332592401334E-03
               3.2945755493032991E-03
               3.4961452261107148E-03
               4.4142747774350197E-05
              -5.1391370711524687E-03
               3.1643689828297081E-04
               4.3717698544564154E-04
              -1.9777920194141761E-06
               1.6205355125904057E-03
              -5.5383144822521613E-04
              -6.8023235221292562E-04
              -2.4903221019940184E-03
               6.7118312257969759E-04
               1.1944375770278465E-03
              -1.6478730430392641E-04
               2.7989423574159328E-03
               4.1277091032179637E-04
              -5.9849275011619513E-04
               1.5155627618130484E-03
               7.4931812414735701E-04
              -4.3497400951795064E-04
               4.2095448203995485E-04
              -2.4694468156632367E-03
               2.2984848719424924E-04
              -1.0477608024201716E-03
               5.1118142958093808E-04
               1.0155483827309906E-03
              -1.5955568118970281E-03
               3.7088434554198102E-03
              -3.3558792476956496E-03
               8.1501067654647522E-04
              -5.9231925894760356E-03
              -1.0051200881249455E-04
              -8.7430483486775415E-04
              -5.1689647766208087E-04
              -7.9379370812060512E-04
               1.2334700738778684E-03
              -1.1083556910602749E-03
               1.7337770774343839E-03
               1.5548810359430900E-03
              -2.8452501438544059E-03
               6.7605117137698942E-05
              -1.2165194921806952E-03
               1.7348824752333686E-03
              -1.4040548142136421E-03
               4.0771280073296700E-03
              -1.2715109195499811E-03
              -8.1476812771780614E-05
               2.5145895021858114E-03
              -4.1703077912339844E-03
               2.6777397010925271E-03
               5.0143467015328225E-03
               2.1646321143833425E-04
               1.3558382185624863E-03
              -1.0813340085950144E-03
              -1.2715757970398200E-03
               3.6295303623624176E-03
              -1.1411674504305880E-03
               1.2400111767246825E-03
              -1.8132296984112355E-03
              -7.6511380698956425E-04
               2.6053457302886886E-04
               2.0690872425188231E-05
               1.4143747720341308E-04
              -1.0859381760562764E-03
               3.6545630623510761E-03
              -8.2775740077310598E-05
               2.4028854429912136E-03
              -6.7814123521693127E-04
               4.4470026694560963E-04
               2.2945832957269466E-03
               1.2411926329764229E-03
              -1.9753742144230958E-03
               1.4111592550363470E-03
              -7.2994163045872126E-04
               1.0927553457024739E-04
               7.5028381102914198E-04
              -8.6235883581607285E-04
              -8.7802086690911066E-05
               1.1533865378007459E-03
               1.1772019382612099E-03
               4.5757268111435996E-04
              -1.0203754446105012E-03
               8.6780625655693503E-04
               5.0311695153833257E-04
              -2.0673393293709876E-03
               4.1282912861902437E-04
               2.3471721118961970E-03
              -5.8825209725221371E-04
               7.8372165790120793E-04
              -2.6023887608940368E-03
              -5.6964466221304092E-04
              -2.7037910148422057E-03
              -2.9616438578431050E-04
               3.4509278895405993E-04
              -2.0795444867252916E-03
               3.3527075669484729E-03
               2.2806386730340089E-03
               1.1867629694285054E-03
               5.0238562723906965E-04
              -8.5029484719064156E-04
              -2.5997405218037596E-04
              -1.3476063065908351E-03
              -1.9009263978215585E-04
              -1.2362709921045190E-03
              -3.2219356099391599E-03
              -8.7197554977086998E-04
              -2.6025777933991246E-03
               7.1142356491454666E-04
              -1.4942434296232945E-03
               9.9676280095546731E-04
               1.4051166201805845E-03
              -5.0136443290992897E-03
              -1.3845789745915655E-03
               1.7231852820805481E-03
               1.3169816243903841E-03
               6.4416203093870797E-04
              -9.0727935211593177E-04
               3.9771528267722803E-03
               8.1835811773562132E-04
              -3.7796876785144103E-03
              -1.0251869859512048E-03
              -3.0355274107133402E-03
              -1.4000112827821491E-03
              -3.7930012264680651E-04
              -1.6909546943165107E-04
               2.3144259568745785E-04
               3.4097903799129520E-03
              -2.2725918057956611E-03
              -6.4592165771616239E-04
               1.4324257730308693E-03
               1.7487792656029125E-03
              -1.7111513208591352E-03
              -9.9598793308553813E-04
              -2.9419945339152279E-03
              -8.2065982580553103E-05
               6.6150179728205233E-04
               2.9248945670695914E-04
              -4.9300749744184188E-03
               1.7887583883071513E-03
               3.3410260105210363E-03
              -6.9615429963940188E-04
              -1.6936790266964376E-03
              -1.6352111543484096E-04
              -1.2599681681360194E-03
               1.7488939701834091E-03
               1.5076049329232366E-04
              -3.9047163692480825E-03
               2.1717250701495249E-03
               1.5915198117137999E-03
               7.7918120948381386E-04
               2.4062607495867849E-03
               5.8958157840522014E-04
               4.1144634355884425E-03
               1.6637888100697997E-03
              -2.2546350290921693E-03
               3.9383137221778934E-04
              -4.0609623261438875E-03
              -4.2791867416743425E-03
               3.7179550275239239E-03
               4.2434982875469727E-04
               1.2990844955984269E-03
               2.2586578578372263E-04
               1.0353501473051845E-03
              -2.3828236733712629E-03
              -5.0566303061105086E-04
              -2.7401117930609172E-03
              -2.1339709085812161E-03
               1.0619051440491911E-03
               1.8183151924756004E-03
               3.6570628137105247E-04
               3.4517122371218825E-05
               2.3598243919812152E-03
               2.7037400052852458E-03
              -5.3784700576440560E-04
              -1.0355751529800780E-03
              -4.9590706728491068E-04
               5.5914757973492117E-04
               3.1203608207657379E-03
               1.3408581189188029E-03
               2.6871952836602080E-04
              -4.9244547144085737E-04
              -2.4185753672253609E-03
              -1.3815065853042031E-03
              -1.8436868067098601E-03
              -6.5412133754810646E-04
              -1.4091325997851614E-03
               1.6599712538370421E-04
              -2.3254948140758527E-03
               1.9330919118619946E-04
              -5.2681433363615810E-04
              -1.9043334196377636E-04
               3.4943472685635209E-03
              -5.8828646923211078E-04
              -1.1930537031206196E-03
               4.8069179973417291E-03
              -9.9300179717310832E-05
               2.8967342984258303E-04
              -1.7897380820763183E-03
              -1.8183575184011907E-03
               1.0005275379563194E-03
              -6.2002644090520110E-04
               1.9094537278271820E-03
               9.9747669659206437E-04
               5.3395661629921515E-04
              -1.3346715200653492E-03
               3.4069954915527129E-03
              -1.6605123451983214E-03
               3.5128265824873211E-03
              -1.0867325295099203E-03
              -1.7079901827968418E-03
              -4.8324833176185732E-03
               1.5893584690768385E-03
               3.0538060494124573E-03
               4.4728298328147612E-04
              -2.3994758855779301E-04
               1.3953784081473506E-03
               2.1780074736010074E-03
               1.6544790233872743E-03
              -2.9120322438092017E-04
              -8.4676163656968104E-03
               1.4477787747073378E-04
               1.6285106958574980E-04
              -4.4520049951894524E-03
               3.6589292458623579E-04
               1.2380380442723092E-03
              -2.3342162341785655E-04
              -2.7562750106069843E-03
              -1.4752342452875047E-04
              -1.9612273316707129E-03
              -4.5521486778211115E-03
              -3.1726687596903393E-03
              -3.3305590800040089E-03
               1.5008907559999191E-03
              -1.4233189055522146E-03
              -4.4172328744519984E-04
              -5.0935415737034199E-03
               9.6911975672557462E-04
               5.9560548961940841E-04
              -2.4231605630645895E-03
               2.7656326359929715E-03
              -2.1999898877790441E-03
               1.7612284106889017E-04
               2.4424437704003198E-03
              -2.8265336008113017E-03
              -3.1095255920146276E-03
              -1.0274380096321320E-03
              -3.5169194478289136E-04
               7.2431650828231936E-04
               4.4974538692183685E-03
              -3.7397862085675367E-03
              -7.3892564476230797E-04
               2.4524429203218574E-05
              -2.9653251506418059E-03
              -3.5809315440623640E-03
               7.5774682855529315E-03
              -4.6573817923360050E-04
              -5.1446623523538661E-03
              -7.3520179810915819E-05
               2.5277126914742356E-03
              -1.2535075164785948E-03
              -2.0832660717214034E-03
               1.1657170577284806E-03
              -3.7448998753379136E-03
               1.0747662541943854E-03
              -6.3373148599559642E-04
               2.0663152530133069E-03
              -4.7520249707196406E-03
               1.8081789744655815E-03
              -1.0196042082709854E-03
               1.3005484898365562E-03
              -1.9213766371311541E-03
              -1.9674072337911683E-03
               2.1417654233704003E-04
               4.7833494278322784E-03
               2.6724607377096744E-03
              -6.8422340779384838E-03
              -2.2637585864874808E-03
              -2.0396898638116406E-03
               1.5978458335939533E-03
               1.1437229052109149E-03
               2.5897809992638738E-03
              -7.8444157955664300E-04
              -4.3924837455668947E-03
               7.4385802421275227E-04
               5.8349998980050275E-04
              -6.5216443895622857E-04
              -2.0903237411125219E-03
               2.7021957053650707E-04
               1.6628565132369962E-03
              -2.8757024152435318E-03
              -2.4174404844795567E-04
               7.4232415054121684E-03
               2.6126085282813952E-04
              -2.5557236199314206E-03
               5.0758755299956443E-04
               2.9702149756665394E-03
              -7.6171327581129927E-04
               2.4815037151553122E-04
              -2.5433490208932397E-03
               6.9181925102175252E-04
              -1.3951763886594238E-03
              -1.5936207503216325E-03
              -1.1558785307167045E-03
               9.2940988747040670E-04
               2.1485002925236223E-03
               4.6901233230209306E-05
               8.7479178895373880E-04
              -2.9625371543644989E-03
               2.8611190922094897E-03
               2.1087956782810325E-04
               3.5268711397758975E-03
              -1.4424730675771124E-03
               3.5486632663640408E-05
              -3.6300807812669538E-04
               9.8589928067037273E-04
               5.8276605102376899E-03
              -8.3771435125881981E-04
              -1.3420649108642896E-03
              -9.2781197389201972E-04
              -1.3815376105351265E-03
              -6.1384297211684478E-04
               1.6682207318565327E-04
              -1.2021445890725384E-03
              -4.3187217522359651E-04
               8.2243952112043251E-04
               2.4105300574679250E-04
               1.3835523800996828E-03
              -1.8771950697033541E-03
               5.3925008557584721E-04
               3.9516989110171584E-03
              -4.4691558668587088E-04
              -9.5830616740666993E-04
              -1.1220260120794895E-03
               4.8022552766994295E-05
              -2.9200107717266464E-03
               3.7060710938305120E-03
               2.5834720568704343E-04
               1.6919375814161740E-03
              -1.2350459888367487E-03
              -3.3936671851968338E-04
              -2.1332932347519120E-03
               1.4803409053694280E-03
               4.6677667332581960E-04
               1.7141607618191780E-03
              -7.3525082950730866E-04
               7.6865049409993301E-04
               5.2743776845665530E-03
              -4.2956980243757208E-03
               1.2319559584712540E-03
               4.4328872526285104E-04
               1.0098973288790657E-03
               2.5336358842140039E-03
              -1.1515720876163001E-03
               2.1467447673050087E-04
               1.1115084836779013E-03
               6.9357715926298465E-04
              -7.5245002235840800E-03
               4.7141071639873874E-04
               6.0915535589688738E-04
               9.5802535707506303E-04
              -1.8322536958137884E-04
               1.8648908361188241E-04
              -2.0359197584468277E-03
               2.7495398846685325E-03
               1.0494455270093914E-03
              -5.1155831522272655E-03
              -1.5026332098096865E-03
              -3.1372636694798736E-04
               2.9528517178988641E-04
               5.0538695747566974E-04
              -3.0267992360951514E-03
               1.0413133967029707E-03
               4.8926719698626610E-04
              -2.1483110228568392E-03
               6.8421445459070410E-04
               2.3302950483270759E-04
               2.8927938452273628E-04
               2.5314270817921721E-03
               1.5904281793011961E-03
              -7.8492274832360530E-04
              -6.1582438650205275E-04
              -2.5364419153843781E-04
              -1.2990375795158497E-05
              -9.2502014805862442E-04
               8.9635554345128535E-05
              -3.2110328063404458E-03
              -8.9050920722455180E-04
               2.2235620605684566E-04
              -1.8049664080230197E-03
               3.5016504548249705E-03
              -2.5461377351350344E-03
               2.7035291618424189E-03
               2.8648966186074361E-03
               6.0079625094280296E-03
               4.4240690662167460E-04
              -5.4219633885855113E-04
              -3.6137929847108127E-03
              -3.8870318944584856E-03
               3.9636493451301142E-03
               2.3093797962193243E-03
               1.4647184954801739E-03
              -3.6523543900077800E-03
               8.8345764531250220E-05
               4.3055990939109808E-04
              -1.8311966339608235E-03
              -2.1970814232441438E-03
               1.6554455743922837E-03
               1.4834560484055929E-03
               4.8395973763892099E-03
              -4.0403012523646687E-03
              -2.2897898683083375E-03
         &END THERMOSTAT_ENERGY
         &RNG_INIT
Wiener process for Thermostat # 1        1 F T T  -6.0716406076406559E-01        1550331767.0         837266116.0          98570058.0        1489725724.0        3262240842.0        1710203842.0             12345.0             12345.0             12345.0             12345.0             12345.0             12345.0             12345.0             12345.0             12345.0             12345.0             12345.0             12345.0
Wiener process for Thermostat # 2        1 F T T  -2.9251915336954104E-01         554408653.0        2985977068.0         648902377.0        1615939582.0        2938933042.0        3262816510.0        3692455944.0        1366884236.0        2968912127.0         335948734.0        4161675175.0         475798818.0        3692455944.0        1366884236.0        2968912127.0         335948734.0        4161675175.0         475798818.0
Wiener process for Thermostat # 3        1 F T T   7.0193755897461885E-01         842162840.0        3453006903.0         576355069.0        1261194087.0         776204178.0        4049741616.0        1015873554.0        1310354410.0        2249465273.0         994084013.0        2912484720.0        3876682925.0        1015873554.0        1310354410.0        2249465273.0         994084013.0        2912484720.0        3876682925.0
Wiener process for Thermostat # 4        1 F T T   1.5134200658371346E+00        3706831885.0        1588510011.0        2069842416.0        2643428178.0        2972167182.0         120098618.0        2338701263.0        1119171942.0        2570676563.0         317077452.0        3194180850.0         618832124.0        2338701263.0        1119171942.0        2570676563.0         317077452.0        3194180850.0         618832124.0
Wiener process for Thermostat # 5        1 F T T   1.2472736305160697E+00        3414274630.0        2053947071.0        2186771580.0        1685365097.0        2757911939.0        1042011763.0        1597262096.0        3906379055.0        3312112953.0        1016013135.0        4099474108.0         275305423.0        1597262096.0        3906379055.0        3312112953.0        1016013135.0        4099474108.0         275305423.0
Wiener process for Thermostat # 6        1 F T T   1.2230812549872367E+00        2331731112.0         465097848.0        2286995768.0         520727509.0        1200908793.0         153702815.0          97147054.0        3131372450.0         829345164.0        3691032523.0        3006063034.0        4259826321.0          97147054.0        3131372450.0         829345164.0        3691032523.0        3006063034.0        4259826321.0
Wiener process for Thermostat # 7        1 F T T   5.1053340869497543E-01        3314112343.0        3535895942.0        1117394971.0        2236230374.0         910766465.0        2655716490.0         796079799.0        2105258207.0         955365076.0        2923159030.0        4116632677.0        3067683584.0         796079799.0        2105258207.0         955365076.0        2923159030.0        4116632677.0        3067683584.0
Wiener process for Thermostat # 8        1 F T T   5.1904378811533303E-01        4183558917.0         104118993.0        3033982922.0        1586246474.0        2109764246.0        2621211623.0        3281794178.0        2616230133.0        1457051261.0        2762791137.0        2480527362.0        2282316169.0        3281794178.0        2616230133.0        1457051261.0        2762791137.0        2480527362.0        2282316169.0
Wiener process for Thermostat # 9        1 F T T   1.1790395699589430E-01        2356544302.0         289933276.0        1693378653.0         945623430.0        2301012956.0        1497437963.0        3777646647.0        1837464056.0        4204654757.0         664239048.0        4190510072.0        2959195122.0        3777646647.0        1837464056.0        4204654757.0         664239048.0        4190510072.0        2959195122.0
Wiener process for Thermostat # 10       1 F T T  -1.2304677013541235E-01        3285133800.0        2977137035.0        3243466524.0        3267344028.0        1039601413.0        3019496648.0        4215590817.0        3862461878.0        1087200967.0        1544910132.0         936383720.0        1611370123.0        4215590817.0        3862461878.0        1087200967.0        1544910132.0         936383720.0        1611370123.0
Wiener process for Thermostat # 11       1 F T T  -1.0191732810096692E+00         811167499.0        2324726075.0         816751012.0         396909733.0        1028960914.0         772119777.0        1683636369.0         362165168.0         814316280.0         869382050.0         980203903.0        2062101717.0        1683636369.0         362165168.0         814316280.0         869382050.0         980203903.0        2062101717.0
Wiener process for Thermostat # 12       1 F T T  -3.7016758683898837E-01        2252394158.0        1971622633.0        4214738994.0        1916675770.0         114525858.0        1636178165.0         272317999.0         166758548.0         310112982.0         201045826.0        1680231254.0         118290799.0         272317999.0         166758548.0         310112982.0         201045826.0        1680231254.0         118290799.0
Wiener process for Thermostat # 13       1 F T T  -2.9627661000365113E+00         116687855.0        3337210301.0        4028830363.0        2179006183.0        1264677396.0        2043435604.0        2245755202.0        1652682525.0        2865544364.0         721509566.0         209733568.0         592362218.0        2245755202.0        1652682525.0        2865544364.0         721509566.0         209733568.0         592362218.0