 # Version information for this restart file 
 # current date 2024-11-21 19:30:56.233
 # current working dir /scratch/work/courses/CHEM-GA-2671-2024fa/students/jw8872/comp-lab-class-2024/Week12-IntroAIMD/Runs/Proton
 # Program compiled at                              Sat Dec 12 18:27:15 EST 2020
 # Program compiled on                                         cs001.nyu.cluster
 # Program compiled for                                                nyu-intel
 # Source code revision number                                       git:8c64c6e
 &GLOBAL
   PRINT_LEVEL  LOW
   PROJECT_NAME proton_aimd_1ns_every0.5fs
   RUN_TYPE  MD
   WALLTIME 21600
 &END GLOBAL
 &MOTION
   &MD
     ENSEMBLE  NVT
     STEPS  2000
     TIMESTEP     4.9999999999999994E-01
     STEP_START_VAL  162
     TIME_START_VAL     8.1000000000000071E+01
     ECONS_START_VAL    -1.1027999832999169E+03
     TEMPERATURE     3.0000000000000000E+02
     &THERMOSTAT
       TYPE  GLE
       REGION  MASSIVE
       &GLE
         NDIM  5
         A_SCALE     1.0000000000000000E+00
         A_LIST     1.8595758612559999E+02    2.7263853498399998E-01    1.1526100454610001E+01   -3.6414578262600003E+01 \
             2.3173375816020001E+02
         A_LIST    -2.7809524712060002E-01    8.5951591808710006E-05    7.2189048017650004E-01   -1.9844539343859999E-01 \
             4.2409257583420001E-01
         A_LIST    -1.4825808131210000E+01   -7.2189048017650004E-01    1.3590902121280000E+00    5.1498896280349999E+00 \
            -9.9949268450990001E+00
         A_LIST    -1.0372189126880000E+01    1.9844539343859999E-01   -5.1498896280349999E+00    2.6661910891169999E+01 \
             1.1507715495310000E+01
         A_LIST     2.1801346360420001E+02   -4.2409257583420001E-01    9.9949268450990001E+00   -1.1507715495310000E+01 \
             3.0958394565589998E+02
         &THERMOSTAT_ENERGY
               2.4110871259927459E-04
               1.1725896518078090E-03
               1.3048890199948956E-04
              -2.4464986379665052E-03
              -2.0800933038577669E-03
               2.4119861571018407E-03
              -3.3102968169229688E-03
               9.8141135779404804E-04
               4.2728281152691902E-03
              -2.9303588090715911E-03
               5.0312890878503160E-03
              -5.7269191842031512E-04
               2.8476043875774377E-03
              -4.5528498765252571E-04
               8.5706084896540002E-04
              -2.9424525088899579E-03
               2.6559419614232398E-03
              -2.3411840772962680E-03
               1.7897394977561315E-03
               2.1108777722895339E-04
              -4.5458223398475326E-04
               1.7998691477448968E-03
              -1.2304298558632992E-03
               1.5492981366130166E-03
              -3.1460040765264384E-03
              -3.0348913606700950E-03
               2.3649028063066910E-04
               6.3853957767133159E-04
               5.1129929568592008E-04
              -9.3671034513581847E-04
              -6.9121540562995239E-04
              -1.2284423794111717E-03
               2.7780896954684092E-04
               1.2857841135836599E-03
              -2.4480278111111650E-03
               3.2578126368592798E-03
               5.1313301023275381E-04
              -4.0250697578250207E-04
               1.9517945992668601E-04
               2.3056862171367000E-03
               2.4299771015098676E-03
              -3.1853564368118374E-03
              -1.0733607859886587E-03
               3.9459367128992402E-03
              -1.6287186233188324E-03
               2.9224654446118655E-04
               2.1383207196338223E-04
               1.6016527806401483E-04
              -2.0236113083218809E-03
              -5.7869674810261205E-04
               2.9268594781678881E-03
               4.8707388128031313E-04
              -1.8597025726334012E-03
              -5.9474199619643045E-04
              -1.4767744998756553E-03
              -1.6199468712905477E-04
              -2.1198558431246781E-03
               1.7616341536156048E-03
               1.6875134866278952E-03
              -2.1076431801187261E-03
              -1.9446355416234191E-04
               3.9534732394031552E-03
               1.9192737001305033E-04
               8.0994536653182698E-04
              -1.7702366258788567E-03
               2.5825801396229457E-03
              -8.0645387996316456E-04
               3.3290915511427059E-03
               5.2290905999665489E-04
               4.4624955378869336E-04
              -1.1494834047314126E-03
               2.8224075849819411E-04
              -1.0102634729956075E-03
               4.3636860160789677E-04
              -2.8539242254673077E-04
              -2.4946347956013430E-03
               1.0124984576718402E-03
               2.3035143077814032E-03
               3.0375823852267503E-03
               4.1407327332340204E-04
              -1.3021829198671749E-03
              -7.6805930859015861E-04
              -1.0689535554105523E-03
              -4.8188244629383586E-04
               2.6080230944810377E-03
              -1.3441516345989060E-03
               1.9156202530584046E-03
               1.0167081515373669E-03
               1.7732916423370931E-04
              -2.3423205257991435E-03
               2.5400080532882370E-03
              -2.2694364935795771E-03
               9.5938929361245580E-04
              -1.8083718944952056E-03
              -2.7294731901199840E-03
               2.0615775748896153E-03
               7.2783870292704770E-04
               1.1334492140570856E-03
               8.8432448098093859E-04
               1.7966836794790377E-04
               2.4061434149000646E-04
              -1.3767112719939171E-03
              -1.2306405184450962E-03
               2.0728298371311279E-03
               6.0020923055001214E-03
              -4.3775798117965982E-03
              -2.6265677539088946E-04
              -5.6456455138845652E-04
               3.4143157339625724E-03
              -3.3725175074110210E-04
               2.5356438889311381E-03
               1.1765719070034990E-04
               5.8473822721738088E-04
              -8.9467213602549014E-04
               7.9223794844525625E-04
               5.3624665995824251E-03
              -9.4060226993099988E-03
               3.6131462340402518E-04
               5.7491248311600717E-04
               2.7872751857465283E-04
              -2.4179587440708640E-04
              -1.3583080539392384E-04
               6.0171125585197381E-03
              -1.0811119653096623E-04
              -4.2393969075834740E-03
              -2.7825262574846256E-03
               3.7601014237369083E-04
               2.4942328621298071E-03
               2.3670292887102105E-04
              -1.1506734886486251E-04
              -2.0201075372179400E-03
              -1.6194133636471650E-03
               2.0341131064662010E-03
              -5.6418311679025607E-03
               5.6228612302795875E-04
              -1.4498386795411868E-04
               3.7990729430104053E-06
              -3.2328292867570062E-04
               7.4469076365717255E-04
               9.7545853466232939E-04
               9.5839668358200321E-04
               4.4143191543681492E-03
               6.3190195437264453E-04
              -8.2486594466575419E-04
              -1.0715376866323044E-03
               1.9191265091609701E-03
               1.0897283256283486E-03
               2.0305193822811813E-04
              -1.6936583074187983E-03
               2.9673378107522687E-03
              -1.7700159616430328E-03
               2.0017596685003415E-03
              -1.3059588394172038E-03
               1.2941086750249554E-03
               8.2547892208191260E-04
              -5.6666972565969304E-04
               1.1405933357332399E-03
              -1.4741450214287995E-03
              -4.1726055702392430E-04
               4.2231566694008330E-03
              -1.8326940368349138E-03
              -3.7827491315699509E-03
              -8.2718589066485787E-04
              -1.7106867699703487E-03
               2.3986488074566790E-03
               3.8960143242830806E-03
               2.3876315150870211E-03
              -1.3319790231558243E-03
              -5.0612965173409893E-03
               2.3220549990192181E-03
              -2.7761369746276697E-04
               3.1815016459398968E-03
               2.8014871580308476E-03
              -2.2608549199082954E-03
               1.8063058780647921E-03
               1.6315754725710740E-03
               3.4645396496190244E-03
               6.4780960109816522E-03
               1.0883925142142034E-03
               1.4784655362502347E-02
               7.8960926775756659E-04
               1.9031024013982118E-03
               2.6563222083811804E-03
               1.1498825113366321E-04
               1.5332377736265719E-03
               2.4212871424273650E-04
               2.4156287590330391E-03
              -2.1980252875843905E-03
              -4.6488462652029758E-03
              -6.3594020094450202E-04
              -6.0682775538199577E-04
               3.3439078633530292E-04
              -1.4195879698527239E-03
              -4.7769054256722532E-04
               7.4206358889652188E-04
              -2.5338527215753074E-04
               1.6285336828288023E-05
               2.5835639050621473E-03
              -2.6905406248693041E-04
              -5.6061173779223521E-04
              -1.4198599897614181E-03
               7.0338882077510315E-04
               8.8961276515141577E-04
               1.9201406314782966E-03
              -2.3420753981749972E-03
              -3.9759186962696862E-03
               1.1982024521954983E-03
               2.0626581736484040E-03
              -7.2405836056094067E-04
               1.1314258148495456E-03
              -6.2111965014604448E-04
               4.1166217986936423E-04
               2.3984516588601459E-03
              -1.0578556737144711E-03
               2.7010420489786226E-04
               1.3419797863244943E-03
              -2.3204804459027490E-03
               6.1465899033924629E-04
              -2.2342309917071780E-03
               1.8000887328322183E-03
              -6.3184636172044519E-04
              -1.1419683419140140E-03
              -3.3587089703827279E-03
              -8.8276682062497091E-05
               4.0619306517126639E-03
              -6.4037370451431577E-04
               2.5361829299794252E-03
               1.0817346250179287E-04
              -5.0526041064979195E-04
               1.3127110755224590E-03
               3.2252368405159316E-04
               1.1252115368438167E-03
              -2.7335967287002122E-03
               1.0232480791629553E-03
               2.3362876778236113E-03
              -3.5058971792177596E-03
              -1.9058723237553473E-04
               2.0393485170163601E-03
               3.6074268058242781E-04
              -2.2914512297049682E-05
              -1.8715535279491477E-03
               1.2390232730130621E-03
              -1.0781487103484080E-03
              -7.4691299972666058E-04
              -3.5226519066973883E-04
              -1.7980937382978388E-03
               1.0505566591601037E-03
               2.7266568919150085E-03
              -6.5181549304290059E-04
              -7.0839382312714045E-03
               3.6079006319311596E-03
               5.2538376271376685E-04
              -2.3256961128131724E-03
              -1.8748294068677602E-04
               2.0806613030204145E-03
               1.2249873220429317E-03
              -3.7879776373590654E-03
              -1.2447754014190415E-03
              -1.0079302801838960E-03
              -1.8132259004319132E-03
               7.4588469176808307E-04
               1.1816043831125119E-03
               4.2409756848384443E-04
               6.7869041871898344E-04
               5.3525972901557559E-03
              -1.3297357414974553E-03
               6.8383975683463988E-04
               3.7449431383917782E-03
               1.7138927323878558E-04
              -5.3413543232491158E-04
               3.1493061277550281E-03
              -3.7230996852965761E-03
               4.8578727713106725E-03
              -8.4455848325530494E-04
              -1.0919557940156930E-03
               7.4609142465467636E-05
              -7.9741285078467547E-03
               6.0109591876691005E-03
               2.1065780850912296E-03
               1.8734401443250880E-03
              -1.4711025302490844E-03
              -4.3159689567568776E-03
              -2.9090719511381922E-04
               3.8380986814529113E-03
              -1.8876927566489942E-04
               1.4499101777393985E-03
               2.3227137793517347E-03
              -3.3042212864262286E-03
               1.3257083541951776E-03
              -1.4332213313785300E-03
               7.7144574453244892E-03
               1.2958147000832745E-03
              -9.0711505840709424E-06
              -4.3128810652321120E-04
               1.0875416171720260E-03
               4.7785923858548202E-03
              -2.8092271577850863E-03
               3.6530461133975423E-03
              -3.3892345088208653E-03
              -1.7680833230889076E-03
               4.0738879345677268E-04
               1.6663715717844512E-03
               7.7651753666787486E-04
               5.1034221324294604E-03
               1.5606964326705030E-04
              -1.1981438840193747E-03
              -3.1314192817061309E-03
               2.2677017849209390E-03
              -3.5155353811248823E-03
               6.9488636451213611E-04
              -8.2586570508425786E-04
              -9.7114269681216464E-04
               1.4768639471750989E-03
               1.5126055291791415E-03
               2.5646465238289042E-03
              -1.5351410473206405E-03
               7.1112621615976974E-04
               1.2915989291199528E-03
               2.1765300943589012E-03
               3.0399243807258058E-03
               4.4441546470724131E-04
              -1.9010768827679779E-03
               8.2896031476671205E-06
              -1.9504446073926600E-03
               1.6036328613749829E-03
               1.3327953529511081E-03
              -1.1533408239644160E-04
               1.1860565565993265E-03
               4.4859831279561209E-04
              -1.3656864500384280E-03
              -5.0439272540564548E-05
               3.1104142699777465E-03
               1.0857199137392803E-04
               2.1777179453185136E-03
              -1.7820217491533500E-03
              -2.9182195226216774E-03
              -8.7009531677265410E-04
              -1.1316422147112110E-03
               6.1450944716781705E-04
               1.4258955442071606E-03
               1.6023619689022352E-03
               3.0885366808437774E-04
               4.2432924258040874E-03
               1.6504805476051873E-03
              -1.4038983929119838E-03
              -3.6794810723333570E-04
               6.7545199672291978E-04
              -2.2394658058113642E-03
               1.0037745064078109E-03
              -3.7047128738898600E-03
              -4.6525291300832935E-04
               1.4262509840211940E-03
               6.9467128216458706E-04
               3.1786442999476852E-03
              -8.8429388469578329E-04
              -3.9897307617512811E-04
               1.0155330513566868E-03
               2.0726480465998705E-04
              -6.5984225423227467E-04
              -2.0503462143066035E-03
               2.0258724278813833E-03
              -7.8876235862923366E-04
               4.2116166749142361E-03
               1.1110629751103834E-03
              -3.3800035865635394E-04
              -1.1236208566554641E-03
               8.7126972685937589E-04
              -5.8882425282382034E-05
              -2.0957639296517549E-03
              -1.2127913953967403E-03
              -1.2348384089047922E-03
               1.4084376510316123E-03
               2.2090539058308308E-03
              -1.7873136327465993E-03
              -3.2111951611065869E-03
               2.8509531197924440E-03
              -3.4687319464115512E-04
              -4.6601649088170690E-03
               1.2028795947989787E-03
               1.7405086188339997E-03
              -1.4052489323383333E-03
               6.0151137327521629E-04
               8.3493084930141739E-04
              -1.2585084198759135E-04
              -2.0279042630690449E-03
               1.3751478042282929E-03
               9.1867459290034955E-04
              -3.6911784414566198E-04
               6.6069250402726789E-04
               3.8564293066054077E-04
              -9.2884948178767259E-05
               2.9457180648314683E-03
              -1.8686743044251106E-03
              -6.6195561939136620E-04
               8.7364877262231116E-04
              -2.1986649018701388E-03
              -2.3539927987975464E-03
               7.1961417240701091E-03
              -1.3388292922257975E-03
               4.0020090217475225E-04
              -1.1717695257843180E-03
               1.5385957978144181E-03
               2.4157448982565716E-03
               2.1615992718183683E-03
               1.4508585306761584E-03
              -3.7886308806911570E-03
              -4.2703116323343730E-03
              -9.3014521233719671E-04
               9.4443222982068271E-04
              -1.4288129773981702E-03
               1.1539836687762253E-03
              -1.2709207843264575E-03
               2.6634372832752507E-03
              -1.6010996076324278E-03
              -4.7409361091140427E-03
               5.6067545354889841E-03
              -7.3963694190213930E-04
               7.8751128146518348E-04
              -1.1255648834794314E-03
               2.0829432787924761E-05
              -4.5610600214195844E-04
              -2.0311248279062059E-03
              -8.2450659898906540E-04
               1.2047677554395345E-03
               4.5275376734739225E-04
               5.1598095873195817E-04
              -6.4396700122794663E-04
              -4.3468073726277952E-03
               3.8097125342231170E-04
               2.6339819198614384E-03
              -2.7483086986418823E-03
              -1.8831310301270074E-03
               4.4587091240798360E-04
               1.2907236692069597E-03
               2.7462097774778871E-03
               1.1260144704368482E-03
              -8.1386319944314360E-04
              -1.2374162906602201E-03
               2.6998384517013722E-04
               1.5244882003935297E-03
               3.2177240380772115E-03
              -2.0787045624126002E-03
              -2.0667258112074599E-03
              -2.5661958075277159E-04
              -8.7493854585912907E-04
              -2.4787616213585824E-04
              -1.9612427751096212E-04
              -1.2884001860022642E-03
               2.0233783863678133E-03
               3.0698241338016118E-03
               1.1333836640138181E-03
              -2.0115437582203131E-03
               4.1117444676757363E-03
               9.9294876063839169E-04
               6.6791275557896441E-04
              -2.3204937146378505E-03
              -1.7335028680207734E-03
               1.7570399311553930E-03
               1.6224105658755527E-03
              -8.7401340179192632E-04
              -9.1989398054995923E-04
               1.3921968418190811E-03
              -1.5930408979764343E-03
               1.3272261395031583E-03
               2.3689989428865017E-03
               9.9089920589010894E-04
               2.6063343904714496E-04
              -1.4933928971856613E-03
              -5.0964974983684500E-04
               5.9149991814521784E-04
              -2.8247419485146049E-03
              -1.4237005938781515E-03
               4.1010995595640093E-03
              -8.0882837056606635E-05
               9.3671227162731594E-04
               2.3857338020518890E-03
               1.4909952140954101E-04
               4.9385913045148309E-04
              -1.4387453192287252E-03
               1.3335232575301123E-03
               1.5651701656585219E-03
              -4.1490146995334172E-04
              -9.4169131554809973E-04
               2.5737276526831229E-03
              -1.5497358936718423E-03
              -1.1274602692146051E-03
               1.0396689153522954E-03
              -4.2320905830547217E-03
               3.6806221150804848E-03
              -8.4196222045077539E-04
              -6.2423934378764197E-04
               8.0172514678656997E-04
               9.3079694586431402E-05
               2.2915904504636929E-03
               7.8897804546615370E-04
              -6.7663626248252822E-04
               4.1752323300354201E-03
               2.6596341367966540E-03
               9.9426763105059227E-04
              -6.4015112770508939E-04
               2.7609474677781918E-03
              -1.1515666529608069E-03
              -2.5241818962550190E-04
               1.8077327599987691E-04
              -7.7680536911231004E-04
              -3.3081972504022403E-03
               2.1709496765838525E-03
               3.1805589420128362E-03
               1.7936815161457660E-03
              -3.1090425374381153E-04
               8.7025006288240624E-04
               1.2034139784287811E-03
              -2.0155341947955159E-03
              -1.3473188465163960E-03
               2.5177702358788788E-03
              -1.7268021673287612E-03
              -9.7691536023606046E-04
               2.8910037040627639E-03
               5.1010592987065602E-04
              -1.8617890256551750E-03
              -8.8711800217354780E-04
               9.8503148322225662E-04
               8.4368256987454708E-04
               2.5472934927403303E-03
              -3.2145929717858198E-03
               5.8532326011764499E-04
               1.4158536613823472E-03
               1.0587304216823363E-03
               4.1042833748122665E-03
               1.8229062061713164E-03
              -1.9985185856591999E-03
              -3.4015587240635277E-03
               2.8772791041881411E-03
              -2.5002768288382199E-03
               4.7370205728621987E-04
               9.2446755716694994E-04
              -9.7208866263175174E-04
               2.3505740340556459E-04
              -1.6475152405158004E-03
               2.3367720240682378E-03
               1.4301872597381714E-03
              -1.6815023553825982E-03
              -2.4179622819216185E-03
              -2.2010902329614430E-04
               6.9988364906529055E-04
              -1.0474253976259845E-04
              -1.4553181968660664E-04
               2.1730996983603942E-03
               4.3509971979089756E-04
               4.7797166282616595E-03
              -3.4852372424208000E-03
              -2.9521009820274191E-04
               9.5363895811976357E-05
               8.5003136526045958E-04
               3.1193651996781777E-05
              -4.6456583144824587E-03
               5.5168224577536590E-03
              -2.6846082304527522E-03
               3.1642099793688415E-03
              -8.0794039681428309E-05
               2.2516283922207015E-03
               2.6086606436318805E-03
               6.0290609645314382E-04
               6.8892359951817873E-04
              -2.5265043876504468E-04
               1.8989821458216031E-03
              -3.6972309371415780E-03
              -2.4622484937410370E-03
               1.8821769829496082E-03
              -1.4806113673986878E-03
               2.1355685998348346E-03
              -8.5127448178262287E-04
              -1.6344986653175856E-03
               3.3848309957267616E-03
               4.0807255817330544E-03
              -3.9584428960769621E-03
               5.2619075554453474E-03
               6.2136379083024230E-03
              -6.8730768185034088E-03
         &END THERMOSTAT_ENERGY
         &RNG_INIT
Wiener process for Thermostat # 1        1 F T T  -1.7390083232809361E+00        3650209950.0        2953171268.0        2623755081.0          87146957.0        1808477164.0        3191870729.0             12345.0             12345.0             12345.0             12345.0             12345.0             12345.0             12345.0             12345.0             12345.0             12345.0             12345.0             12345.0
Wiener process for Thermostat # 2        1 F T T  -7.3498007483699701E-01         180742691.0          29537141.0        1055726879.0        3129982950.0        3593132476.0        1242846211.0        3692455944.0        1366884236.0        2968912127.0         335948734.0        4161675175.0         475798818.0        3692455944.0        1366884236.0        2968912127.0         335948734.0        4161675175.0         475798818.0
Wiener process for Thermostat # 3        1 F T T  -5.1449438237922818E-01         870740031.0        3612726003.0        1282117365.0        3257325898.0        3428653054.0         759220351.0        1015873554.0        1310354410.0        2249465273.0         994084013.0        2912484720.0        3876682925.0        1015873554.0        1310354410.0        2249465273.0         994084013.0        2912484720.0        3876682925.0
Wiener process for Thermostat # 4        1 F T T   4.9177024624353216E-01        2416125685.0        2107367723.0        3438671602.0        1112618576.0        3453271717.0        2617483633.0        2338701263.0        1119171942.0        2570676563.0         317077452.0        3194180850.0         618832124.0        2338701263.0        1119171942.0        2570676563.0         317077452.0        3194180850.0         618832124.0
Wiener process for Thermostat # 5        1 F T T   4.8900644573893237E-01        2137234305.0         248120518.0          76537988.0         915369783.0        2021857848.0         379351379.0        1597262096.0        3906379055.0        3312112953.0        1016013135.0        4099474108.0         275305423.0        1597262096.0        3906379055.0        3312112953.0        1016013135.0        4099474108.0         275305423.0
Wiener process for Thermostat # 6        1 F T T   8.7243556912025988E-01         651147439.0        3701016320.0        1942065134.0          49399554.0         766485980.0        2211655397.0          97147054.0        3131372450.0         829345164.0        3691032523.0        3006063034.0        4259826321.0          97147054.0        3131372450.0         829345164.0        3691032523.0        3006063034.0        4259826321.0
Wiener process for Thermostat # 7        1 F T T   1.7831594584066521E+00        4116576278.0        3659481651.0        3333751828.0        3240459128.0        1130504159.0        3021283325.0         796079799.0        2105258207.0         955365076.0        2923159030.0        4116632677.0        3067683584.0         796079799.0        2105258207.0         955365076.0        2923159030.0        4116632677.0        3067683584.0
Wiener process for Thermostat # 8        1 F T T   7.3632704610269906E-01        3701935112.0         566722200.0        4258722541.0        4096138861.0        1780159739.0         906188043.0        3281794178.0        2616230133.0        1457051261.0        2762791137.0        2480527362.0        2282316169.0        3281794178.0        2616230133.0        1457051261.0        2762791137.0        2480527362.0        2282316169.0
Wiener process for Thermostat # 9        1 F T T   4.5675361355842681E-01        3199280202.0        4156685631.0         302314297.0         920560729.0         216512316.0         594565934.0        3777646647.0        1837464056.0        4204654757.0         664239048.0        4190510072.0        2959195122.0        3777646647.0        1837464056.0        4204654757.0         664239048.0        4190510072.0        2959195122.0
Wiener process for Thermostat # 10       1 F T T   7.1622241837028411E-01        3013172601.0        2412070079.0        1273792316.0         189040175.0        4281194085.0        3839747680.0        4215590817.0        3862461878.0        1087200967.0        1544910132.0         936383720.0        1611370123.0        4215590817.0        3862461878.0        1087200967.0        1544910132.0         936383720.0        1611370123.0
Wiener process for Thermostat # 11       1 F T T  -1.4258953886229524E+00        3515065586.0        1517024353.0        1384702544.0        3960729671.0         647718484.0         804419830.0        1683636369.0         362165168.0         814316280.0         869382050.0         980203903.0        2062101717.0        1683636369.0         362165168.0         814316280.0         869382050.0         980203903.0        2062101717.0
Wiener process for Thermostat # 12       1 F T T   3.5699885059913411E-01         166779431.0        2569383057.0          38736548.0        1463932892.0        2716446579.0        2350662206.0         272317999.0         166758548.0         310112982.0         201045826.0        1680231254.0         118290799.0         272317999.0         166758548.0         310112982.0         201045826.0        1680231254.0         118290799.0
Wiener process for Thermostat # 13       1 F T T  -2.4531526448030860E-01        1792072244.0        1928253602.0        1371881381.0         798259365.0         224340700.0        2556177102.0        2245755202.0        1652682525.0        2865544364.0         721509566.0         209733568.0         592362218.0        2245755202.0        1652682525.0        2865544364.0         721509566.0         209733568.0         592362218.0
Wiener process for Thermostat # 14       1 F T T   1.7614659888029502E-01        2508832914.0         801310560.0        1102257772.0        1192376593.0        2614915563.0        3822324245.0        3003961408.0        3529909391.0          14538032.0        3603919910.0         566682685.0        1235016484.0        3003961408.0        3529909391.0          14538032.0        3603919910.0         566682685.0        1235016484.0