 # Version information for this restart file 
 # current date 2024-11-21 19:29:47.320
 # current working dir /scratch/work/courses/CHEM-GA-2671-2024fa/students/jw8872/comp-lab-class-2024/Week12-IntroAIMD/Runs/Proton
 # Program compiled at                              Sat Dec 12 18:27:15 EST 2020
 # Program compiled on                                         cs001.nyu.cluster
 # Program compiled for                                                nyu-intel
 # Source code revision number                                       git:8c64c6e
 &GLOBAL
   PRINT_LEVEL  LOW
   PROJECT_NAME proton_aimd_1ns_every0.5fs
   RUN_TYPE  MD
   WALLTIME 21600
 &END GLOBAL
 &MOTION
   &MD
     ENSEMBLE  NVT
     STEPS  2000
     TIMESTEP     4.9999999999999994E-01
     STEP_START_VAL  161
     TIME_START_VAL     8.0500000000000071E+01
     ECONS_START_VAL    -1.1027999832999169E+03
     TEMPERATURE     3.0000000000000000E+02
     &THERMOSTAT
       TYPE  GLE
       REGION  MASSIVE
       &GLE
         NDIM  5
         A_SCALE     1.0000000000000000E+00
         A_LIST     1.8595758612559999E+02    2.7263853498399998E-01    1.1526100454610001E+01   -3.6414578262600003E+01 \
             2.3173375816020001E+02
         A_LIST    -2.7809524712060002E-01    8.5951591808710006E-05    7.2189048017650004E-01   -1.9844539343859999E-01 \
             4.2409257583420001E-01
         A_LIST    -1.4825808131210000E+01   -7.2189048017650004E-01    1.3590902121280000E+00    5.1498896280349999E+00 \
            -9.9949268450990001E+00
         A_LIST    -1.0372189126880000E+01    1.9844539343859999E-01   -5.1498896280349999E+00    2.6661910891169999E+01 \
             1.1507715495310000E+01
         A_LIST     2.1801346360420001E+02   -4.2409257583420001E-01    9.9949268450990001E+00   -1.1507715495310000E+01 \
             3.0958394565589998E+02
         &THERMOSTAT_ENERGY
               4.2179925025876374E-04
               1.5025636298666052E-03
               1.3624799768726035E-04
              -2.2499117474133411E-03
              -2.6598675456081643E-03
               2.3634528848128114E-03
              -2.8457900668277226E-03
               3.8921125130838858E-04
               4.1498405585249296E-03
              -2.9894290290179339E-03
               5.0364167285817411E-03
              -7.0123164449968579E-04
               2.8542258748089256E-03
              -4.3262184875238836E-04
               8.0629680381688390E-04
              -2.6664498656888067E-03
               2.5866748703314772E-03
              -2.2012255774423589E-03
               1.8151761564949814E-03
               3.2916248161537267E-04
              -5.1486877648967207E-04
               1.7927464020823828E-03
              -1.1761655690109263E-03
               2.0714968740847281E-03
              -3.2770987238213431E-03
              -2.7062831382433450E-03
              -3.7669798645791975E-04
               6.7120951795905485E-04
               4.7517538535810349E-04
              -4.9900889002505680E-04
              -2.4635285813887862E-04
              -1.2780702552882724E-03
               5.4316397764333558E-04
               1.3333459775398311E-03
              -2.8703795377141715E-03
               3.3115150614661561E-03
               6.3030359349972541E-04
              -4.4932894516925550E-04
               4.4679066240648684E-04
               2.1271424097352686E-03
               2.5966178978516336E-03
              -3.4959592637914911E-03
              -1.1390829287775501E-03
               3.7012227106427323E-03
              -1.3539107235842009E-03
               3.3997240599112973E-05
              -4.1156915925757206E-05
               1.8144666316942685E-04
              -2.4648629479077271E-03
              -5.3594415438207917E-04
               2.8223903351459489E-03
               5.3049171578160056E-04
              -1.7349709655713882E-03
              -6.6554868723987164E-04
              -1.6006520050367804E-03
              -8.9569190442371870E-05
              -9.1875964462163797E-04
               1.7168776088695278E-03
               1.6735313413333622E-03
              -2.1011100296140020E-03
               2.0120095640914021E-04
               3.4463251955757462E-03
              -2.4557961363789386E-06
               9.9115010552785761E-04
              -2.0144490743710234E-03
               2.5041063868359568E-03
              -8.0536441249238349E-04
               2.8830368058713166E-03
               3.0723969880420694E-04
               3.7254615344838022E-04
              -7.2497139912788020E-04
               1.3161894192776860E-04
               9.0960749952648224E-05
               2.9925961405192244E-04
              -1.9093084979145581E-04
              -2.4950994948129330E-03
               1.4452584909710102E-03
               1.1944343333253752E-03
               3.7026182995888979E-03
               4.8715537909159874E-04
              -9.7388999001260100E-04
              -5.2877613731027611E-04
              -1.3785029829635094E-03
              -3.1110362241220882E-04
               2.3257947278900516E-03
              -1.3921795765068526E-03
               1.9584582327232701E-03
               1.1005848729519756E-03
               4.5503530312717257E-06
              -2.5752714048507151E-03
               2.8122402208972286E-03
              -1.8408238211642480E-03
               5.1275394951690002E-04
              -1.8157432329018565E-03
              -2.8090032832275417E-03
               1.7881946525167801E-03
               1.1642780411546061E-03
               2.6049366387929668E-04
               6.2577601152293623E-04
               2.1714956470925896E-04
               2.1136207419840500E-04
              -1.3813359580597646E-03
              -5.2403253585855849E-04
               2.1137356862584093E-03
               6.1487457791457650E-03
              -4.9989499851000622E-03
               3.9586286263006623E-05
              -9.3255740197933272E-04
               3.5536060387251133E-03
              -4.2410709308732790E-04
               2.6023317988433559E-03
               5.1367446320737479E-04
               5.5684915832330010E-04
              -7.2356406452160355E-04
               1.0212526703970584E-03
               5.3423343073482786E-03
              -9.6640674143202154E-03
               3.7421582112959206E-04
               5.7860663264573686E-04
               2.9397378148328634E-04
              -1.8382808649309773E-04
              -3.3841504879509872E-04
               5.5919976294926191E-03
               4.4346681030831567E-06
              -4.3864381737933073E-03
              -3.8442703089801439E-03
               7.2657351446690647E-04
               2.4532387633359994E-03
               2.9616701436951628E-04
               3.3968624232536069E-04
              -1.8757861491941184E-03
              -1.8704315643036020E-03
               1.8954289353005874E-03
              -5.7890594093554983E-03
               1.6617947163443856E-04
              -4.2671034347516645E-04
               1.3009245371974147E-05
               8.1374221355900241E-05
               7.9123989734881863E-04
               9.5111037294054630E-04
               8.7839753684632190E-04
               3.8187359893194941E-03
               5.8298856442210855E-04
              -6.8865566254878584E-04
              -7.6339404685770579E-04
               2.0188993303161405E-03
               1.0624326626876856E-03
               1.1374535121722306E-04
              -2.0445897854985745E-03
               2.8402767124870005E-03
              -1.4681457624396350E-03
               1.8523375975820560E-03
              -1.3085638645011805E-03
               5.4953255607813377E-04
               7.7868148517943887E-04
              -1.1891566446505619E-03
               9.7772268297437268E-04
              -1.8840318678376585E-03
              -7.0181857441648150E-04
               4.2725983757433920E-03
              -2.0430286255149919E-03
              -3.8018636500033983E-03
              -8.0742621003321638E-04
              -2.0827422358975951E-03
               2.2881884165185449E-03
               4.3072504948570714E-03
               2.7393643364599157E-03
              -1.2417737252439522E-03
              -5.0137403111031320E-03
               2.3042193063395030E-03
              -7.3402056163489752E-05
               3.3101803914713777E-03
               2.8280674673461592E-03
              -2.5073007610652127E-03
               1.8191555650919605E-03
               1.7505928865435153E-03
               2.7373798747738778E-03
               6.4448926805134180E-03
               3.8593061028712730E-04
               1.4459899133350117E-02
               7.7473236137720137E-04
               1.8672420206830946E-03
               2.7018146098630891E-03
               2.3834463027233712E-04
               1.5711390228124189E-03
              -7.9619988446108395E-05
               2.2163878569683025E-03
              -2.1859120657795454E-03
              -4.0545932084359660E-03
              -6.5427204837557732E-04
              -5.7620296449720795E-04
               1.6921618566667653E-04
              -1.3812082654562359E-03
              -1.2421605273993416E-03
               7.0928666440303915E-04
              -4.4913569632493372E-04
               7.9985002532541275E-05
               2.5511456341571681E-03
              -2.1057851270036573E-04
               9.9068019967378290E-05
              -1.4168868805816662E-03
               1.0445364372104000E-03
               8.5694123534010033E-04
               1.5984183863181202E-03
              -3.3536786293516920E-03
              -3.9256875880755854E-03
               1.1796369445632004E-03
               2.7011435550180520E-03
              -9.7799303170103213E-04
               1.4488611990152161E-03
              -2.9343125487061152E-04
              -2.2998395723209731E-04
               2.4158647463987655E-03
              -1.4217013429866038E-03
               3.8872013659350637E-04
               7.6097129234210001E-04
              -2.0258477736228024E-03
               7.3847468934698469E-04
              -2.2021402514367512E-03
               1.8237695472396679E-03
              -2.4714719231654162E-04
              -7.3712864220792018E-04
              -3.2892731327092695E-03
              -7.8674185489562579E-05
               4.0518306446399492E-03
              -1.0711897569782112E-03
               2.1248307940167702E-03
               6.2333512412532843E-04
              -4.9741705893545200E-04
               1.1642265978413710E-03
               3.2293771617917025E-04
               1.7224677620730786E-03
              -2.6167024062635031E-03
               6.7114393327292413E-04
               2.5580261981458605E-03
              -3.5958191743626060E-03
              -6.3539876860592724E-05
               1.5792236670649096E-03
               8.2426947169626081E-04
              -1.1536438663818917E-04
              -1.8249084635104794E-03
               1.1087537539898073E-03
              -1.4267660435704499E-03
              -9.2924236822623969E-04
              -2.3019649154577268E-04
              -1.7806081270032134E-03
               1.0200665886059698E-03
               2.4119901277701162E-03
              -4.1031656017603119E-04
              -5.8741145801410096E-03
               3.6133079839291370E-03
               5.2769352316516102E-04
              -2.5559319343589305E-03
              -4.4073161585916356E-04
               1.7853653398461505E-03
               1.3945207795920511E-03
              -3.9398613697014008E-03
              -9.5059159383066865E-04
              -9.6943475511841151E-04
              -1.9434805739334577E-03
               6.4375716610975378E-04
               2.4644232471801239E-05
               3.6559274335040210E-04
               6.4848347889303714E-04
               5.3498205305611444E-03
              -1.7845388197699600E-03
               7.4916472755884246E-04
               3.7192976335557863E-03
               2.9533410458865248E-04
              -8.1018120269377831E-04
               2.9433585998860905E-03
              -4.6503145222745491E-03
               5.7215594361763522E-03
              -1.3969042806682942E-04
              -2.0230385527648014E-03
               1.1471741815754108E-04
              -6.7874663517584347E-03
               5.9586253229494054E-03
               2.2790462975103972E-03
               1.8320192243346178E-03
              -1.4892619340411931E-03
              -4.4441964240689779E-03
              -2.9252517211481304E-04
               4.3319958756877436E-03
              -1.9766155381977689E-04
               1.3236217593494976E-03
               2.3014832852195242E-03
              -3.7398895710356941E-03
               1.4046443073696849E-03
              -8.4178330389382008E-04
               7.9911750470725452E-03
               1.1851221586469834E-03
              -3.2126461895035205E-04
              -3.8141011428503212E-04
               1.0221538166957592E-03
               5.6934730358113540E-03
              -2.9806784585070887E-03
               3.6722422885508425E-03
              -3.7804274410470585E-03
              -1.7626801495647419E-03
               2.8057381482068878E-04
               1.7312911036450386E-03
               8.1398886011641340E-04
               5.1076195456697480E-03
              -2.9356236722954260E-04
              -1.2303050229537044E-03
              -2.9279085596897246E-03
               3.1454358981612101E-03
              -3.5826860118272474E-03
               7.2618210209171336E-04
              -8.1401946582250993E-04
              -7.7718209785200727E-04
               1.3767778017880481E-03
               1.5394638604166811E-03
               2.4280050001386682E-03
              -1.5413404882304946E-03
               8.1367328142139270E-04
               1.2581028627533370E-03
               2.1815712727667673E-03
               3.0019079350250741E-03
               7.7218056894064820E-04
              -1.5951611486354250E-03
               1.8320412689451287E-04
              -1.8796719150065905E-03
               1.9337182107436975E-03
               9.6410155689699855E-04
              -8.4888017528891293E-05
               1.1047910364895669E-03
               3.2297652779544731E-04
              -1.0779106994012379E-03
              -3.8700933269595413E-04
               4.1940859214578208E-03
              -1.3490452214821196E-04
               2.1417010665488634E-03
              -1.3270677268139054E-03
              -2.5650622151712774E-03
              -5.9091788650367596E-04
              -1.3773346377840647E-03
               6.3335839793435701E-04
               9.7301297839811555E-04
               1.2864626930428396E-03
               5.1021234124505686E-04
               4.1513028562824147E-03
               1.1063510403207957E-03
              -1.7681261417225767E-03
              -3.5094986642541419E-04
               7.3657187943428168E-04
              -2.1895579652486709E-03
               8.6897297625698300E-04
              -4.1811850337600993E-03
              -5.3633374661960962E-04
               1.3913445531954843E-03
               6.0075028579130863E-04
               3.1335856787683067E-03
              -1.0837365287537522E-03
              -8.4289468883918649E-04
               1.8556904923906232E-03
              -1.0126074443291163E-05
              -6.3771295764456979E-04
              -2.1870415657486565E-03
               2.2055394433070172E-03
              -8.4265079873719674E-04
               3.5989465829876599E-03
               1.2924818115350857E-03
              -2.2260097520589316E-04
               8.1292969406337534E-04
               8.7209483172799704E-04
               2.7703612956574090E-05
              -2.2642124359260464E-03
              -1.0192495562334960E-03
              -8.7974446370559076E-04
               1.3559085837301656E-03
               2.1746948504565685E-03
              -1.9844448287926249E-03
              -3.0978044832844390E-03
               3.5653764311827582E-03
              -4.9096909280312560E-04
              -4.5871393094379714E-03
               8.7414189488142324E-04
               1.6891735002537707E-03
              -1.3169172326879257E-03
               1.7329147763526630E-05
               5.0750396392439936E-04
               2.7543401804099737E-04
              -2.2518531179153310E-03
               1.5557130041697709E-03
               9.9206066457108990E-04
              -2.9890998877249545E-04
               3.0552375683332895E-04
               3.9069733378957027E-04
              -1.6081128604335633E-05
               2.9644140842909777E-03
              -1.8653835676246790E-03
              -3.3211604930233980E-04
               4.5914170757873610E-04
              -5.9611127113188439E-04
              -2.0880715076148472E-03
               7.0291280884251612E-03
              -1.7179747202770543E-03
               3.5217291869242984E-04
              -1.3200154146729729E-03
               1.5671408156846679E-03
               2.6192105793242629E-03
               2.1593544766064041E-03
               1.3869021004520468E-03
              -3.8620703048259848E-03
              -4.9211018485835895E-03
              -1.7823352443648618E-04
               9.9413594435377589E-04
              -1.5953004224260774E-03
               1.2662611004660151E-03
              -1.2907766678060140E-03
               2.9084248683179902E-03
              -1.3407320452703899E-03
              -4.7040148107516510E-03
               5.0198722541625529E-03
              -5.8839659016339226E-04
               7.8383258120971776E-04
              -1.2664372556185309E-03
               1.7019218083434446E-04
               2.7792625465954341E-04
              -1.6992539575392961E-03
              -1.0309150171800715E-03
               1.2258212390588684E-03
               7.3663542359013923E-04
               4.8806736758201242E-04
              -8.4016771708301293E-04
              -4.6452811053143417E-03
               2.7215506586030088E-04
               2.7317300787950806E-03
              -2.2658597318362698E-03
              -2.0294053791202176E-03
               2.8367896952520262E-04
               1.3481202091953817E-03
               2.6878667006736373E-03
               1.0919269474847480E-03
              -8.0365894628245155E-04
              -7.7723807615305844E-04
               2.8100340548072695E-04
               1.5300575528285382E-03
               2.9478158156831281E-03
              -2.0855336530483828E-03
              -2.3857251980689319E-03
              -8.8264021661684308E-05
              -8.6578623303672415E-04
              -1.5186804601624430E-04
               9.5883573710138427E-05
              -7.5288214075112892E-04
               1.8137623159018967E-03
               3.2588180414187410E-03
               3.3659836871376375E-04
              -1.9758246760585869E-03
               4.0098700254812807E-03
               1.2516773144223346E-03
               1.0579422451071144E-03
              -3.2839768743841823E-03
              -1.8518814096818163E-03
               1.6881797106794536E-03
               1.6197156664204450E-03
              -9.5158582743093943E-04
              -1.9827109314262347E-03
               1.2655287875221800E-03
              -1.6567402523437486E-03
               1.1734402814787671E-03
               2.4352564256840056E-03
               5.1987771866516858E-04
               1.4425110270266308E-04
              -1.2622894108953468E-03
               5.8954607007104959E-05
               5.1873819197257665E-04
              -2.7724362207273956E-03
              -1.5339844984099342E-03
               4.1000679623123173E-03
              -8.1459054618019397E-05
               9.7356555365959692E-04
               2.6416806554409398E-03
               2.8824704283292004E-04
               7.2916847746102794E-04
              -1.1319848158817553E-03
               1.3193585705250682E-03
               1.9395616334452969E-03
              -4.9114368349730225E-04
              -5.0148205079166334E-04
               1.1931837383380639E-03
              -1.5781111378922491E-03
              -1.3651590748889311E-03
               1.0132020338451016E-03
              -4.1747495020847351E-03
               3.8121508047865727E-03
              -6.6112792865416980E-04
              -9.5335410785786067E-04
              -8.3372787136532802E-04
               2.3431556132732771E-04
               2.8408780965627372E-03
               6.0349417538504860E-04
              -7.1512643571266556E-04
               3.9570195599933616E-03
               2.5418237322983980E-03
               9.0528886135002112E-04
              -9.6503660581794817E-04
               2.7468134426034329E-03
              -8.3413440130590674E-07
              -8.9312965970785851E-05
               2.2078283990772861E-04
              -5.6384841343083236E-04
              -2.8041268602475716E-03
               2.2140761688115781E-03
               2.1542796416847173E-03
               1.8118311029528605E-03
              -5.9126051465665814E-04
               8.7544754698949527E-04
               1.5505890276157376E-03
              -2.3973491467774578E-03
              -1.5930409735751216E-03
               2.2650444794197898E-03
              -1.7410090408138802E-03
              -1.2534215654373109E-03
               2.3009521466645206E-03
               2.9684254973463028E-04
              -1.6433739220281275E-03
              -9.0616603279901071E-04
               8.7934346875640119E-04
               3.3127865301684953E-04
               2.6697809444533758E-03
              -3.1318516843680906E-03
               5.8800433686601082E-04
               1.3342878637579529E-03
               8.8803083261720841E-04
               4.1610200845066010E-03
               1.7654026877652049E-03
              -2.0293559266026475E-03
              -3.6675777550933004E-03
               2.3095532971591131E-03
              -2.4924934219979463E-03
               7.1218410593651318E-04
               8.9049359287048850E-04
              -1.0069728872458645E-03
               5.5362975367548870E-04
              -1.5990417537483808E-03
               2.1822855367556065E-03
               1.5379458055701041E-03
              -1.5919528736294203E-03
              -2.4442496084473241E-03
              -4.7621568599684092E-04
               3.4582511911824382E-04
               3.8718588664635108E-05
              -3.8082039072012447E-04
               2.2886601512970323E-03
               2.9452449732596643E-04
               4.0499860168421381E-03
              -3.4891659669537183E-03
              -7.6974945994883652E-04
               1.9344289845932673E-04
               8.1240012258074657E-04
               2.4559126317101554E-05
              -4.7205723966969202E-03
               5.5457604583060045E-03
              -3.0221139663832502E-03
               3.7029188600491247E-03
               1.1374545624953161E-03
               2.4110987166300730E-03
               1.9398669904557250E-03
               5.5451632345941563E-04
               9.0384282296862854E-04
              -7.6737720905206881E-04
               8.1629728895474523E-04
              -3.8869812214781569E-03
              -2.4678786381658168E-03
               1.9088767177191230E-03
              -6.0380023788839739E-04
               2.2709680165674483E-03
              -6.7073622772062882E-04
              -1.7464103187488388E-03
               2.5967692655591472E-03
               3.8687205874452899E-03
              -4.0101318105358486E-03
               5.2523367497101982E-03
               6.4746013118616025E-03
              -6.6683380820334558E-03
         &END THERMOSTAT_ENERGY
         &RNG_INIT
Wiener process for Thermostat # 1        1 F T T   1.5496579862409965E+00        3951766169.0         463623786.0          89607559.0        1849103419.0        1471882714.0        1413374995.0             12345.0             12345.0             12345.0             12345.0             12345.0             12345.0             12345.0             12345.0             12345.0             12345.0             12345.0             12345.0
Wiener process for Thermostat # 2        1 F T T  -1.5773798268479713E+00        1793572569.0        2935606629.0         604968262.0        3878247125.0        1216360871.0        3737245514.0        3692455944.0        1366884236.0        2968912127.0         335948734.0        4161675175.0         475798818.0        3692455944.0        1366884236.0        2968912127.0         335948734.0        4161675175.0         475798818.0
Wiener process for Thermostat # 3        1 F T T   1.6839435531398956E+00        3035020822.0        3794140698.0        3438440324.0        1170441031.0        1215339324.0        4194061186.0        1015873554.0        1310354410.0        2249465273.0         994084013.0        2912484720.0        3876682925.0        1015873554.0        1310354410.0        2249465273.0         994084013.0        2912484720.0        3876682925.0
Wiener process for Thermostat # 4        1 F T T  -1.0742430749590428E+00         176232029.0        3468060340.0        2438115328.0        1498458514.0        2911795859.0        2806569478.0        2338701263.0        1119171942.0        2570676563.0         317077452.0        3194180850.0         618832124.0        2338701263.0        1119171942.0        2570676563.0         317077452.0        3194180850.0         618832124.0
Wiener process for Thermostat # 5        1 F T T   1.2817672065009250E-01        2734393252.0        3900182603.0        1890141410.0        2078506539.0        1456263202.0         234557936.0        1597262096.0        3906379055.0        3312112953.0        1016013135.0        4099474108.0         275305423.0        1597262096.0        3906379055.0        3312112953.0        1016013135.0        4099474108.0         275305423.0
Wiener process for Thermostat # 6        1 F T T   1.7366686079905569E-01         287920690.0        4205971602.0         611154314.0        2729034046.0        1743996067.0        1379934785.0          97147054.0        3131372450.0         829345164.0        3691032523.0        3006063034.0        4259826321.0          97147054.0        3131372450.0         829345164.0        3691032523.0        3006063034.0        4259826321.0
Wiener process for Thermostat # 7        1 F T T   1.1755850930112177E+00        1021010541.0        3955217496.0        4216336878.0        4268074729.0         895818837.0        3535069117.0         796079799.0        2105258207.0         955365076.0        2923159030.0        4116632677.0        3067683584.0         796079799.0        2105258207.0         955365076.0        2923159030.0        4116632677.0        3067683584.0
Wiener process for Thermostat # 8        1 F T T  -9.3606269795076880E-01        1339711080.0        1834896964.0         559643849.0        1575183388.0         663205482.0        3338601082.0        3281794178.0        2616230133.0        1457051261.0        2762791137.0        2480527362.0        2282316169.0        3281794178.0        2616230133.0        1457051261.0        2762791137.0        2480527362.0        2282316169.0
Wiener process for Thermostat # 9        1 F T T  -1.5120704607076862E-01         491109382.0        2946464276.0          42006671.0        2297526903.0        1075442588.0        3586335476.0        3777646647.0        1837464056.0        4204654757.0         664239048.0        4190510072.0        2959195122.0        3777646647.0        1837464056.0        4204654757.0         664239048.0        4190510072.0        2959195122.0
Wiener process for Thermostat # 10       1 F T T  -4.9285137678974994E-02        1954943621.0        2331500511.0         376761674.0        2447186798.0         301911048.0          43966666.0        4215590817.0        3862461878.0        1087200967.0        1544910132.0         936383720.0        1611370123.0        4215590817.0        3862461878.0        1087200967.0        1544910132.0         936383720.0        1611370123.0
Wiener process for Thermostat # 11       1 F T T  -5.2931830414144909E-01        2779560698.0         268357839.0        2694615619.0        3676061174.0          15791170.0         342944039.0        1683636369.0         362165168.0         814316280.0         869382050.0         980203903.0        2062101717.0        1683636369.0         362165168.0         814316280.0         869382050.0         980203903.0        2062101717.0
Wiener process for Thermostat # 12       1 F T T  -9.2827557030849694E-01        4291438018.0        2394665614.0         775967939.0        3251146081.0        1523080906.0        1556925387.0         272317999.0         166758548.0         310112982.0         201045826.0        1680231254.0         118290799.0         272317999.0         166758548.0         310112982.0         201045826.0        1680231254.0         118290799.0
Wiener process for Thermostat # 13       1 F T T   3.7452201603609464E-01        1357458448.0        1537394574.0         385381538.0         191392164.0        3536116764.0        1139691912.0        2245755202.0        1652682525.0        2865544364.0         721509566.0         209733568.0         592362218.0        2245755202.0        1652682525.0        2865544364.0         721509566.0         209733568.0         592362218.0
Wiener process for Thermostat # 14       1 F T T  -1.4472224842298820E-01        1715904065.0        2146170715.0        3590578824.0        2643577338.0         807140193.0        3058668360.0        3003961408.0        3529909391.0          14538032.0        3603919910.0         566682685.0        1235016484.0        3003961408.0        3529909391.0          14538032.0        3603919910.0         566682685.0        1235016484.0