 # Version information for this restart file 
 # current date 2024-11-21 19:28:30.927
 # current working dir /scratch/work/courses/CHEM-GA-2671-2024fa/students/jw8872/comp-lab-class-2024/Week12-IntroAIMD/Runs/Proton
 # Program compiled at                              Sat Dec 12 18:27:15 EST 2020
 # Program compiled on                                         cs001.nyu.cluster
 # Program compiled for                                                nyu-intel
 # Source code revision number                                       git:8c64c6e
 &GLOBAL
   PRINT_LEVEL  LOW
   PROJECT_NAME proton_aimd_1ns_every0.5fs
   RUN_TYPE  MD
   WALLTIME 21600
 &END GLOBAL
 &MOTION
   &MD
     ENSEMBLE  NVT
     STEPS  2000
     TIMESTEP     4.9999999999999994E-01
     STEP_START_VAL  160
     TIME_START_VAL     8.0000000000000071E+01
     ECONS_START_VAL    -1.1027999832999169E+03
     TEMPERATURE     3.0000000000000000E+02
     &THERMOSTAT
       TYPE  GLE
       REGION  MASSIVE
       &GLE
         NDIM  5
         A_SCALE     1.0000000000000000E+00
         A_LIST     1.8595758612559999E+02    2.7263853498399998E-01    1.1526100454610001E+01   -3.6414578262600003E+01 \
             2.3173375816020001E+02
         A_LIST    -2.7809524712060002E-01    8.5951591808710006E-05    7.2189048017650004E-01   -1.9844539343859999E-01 \
             4.2409257583420001E-01
         A_LIST    -1.4825808131210000E+01   -7.2189048017650004E-01    1.3590902121280000E+00    5.1498896280349999E+00 \
            -9.9949268450990001E+00
         A_LIST    -1.0372189126880000E+01    1.9844539343859999E-01   -5.1498896280349999E+00    2.6661910891169999E+01 \
             1.1507715495310000E+01
         A_LIST     2.1801346360420001E+02   -4.2409257583420001E-01    9.9949268450990001E+00   -1.1507715495310000E+01 \
             3.0958394565589998E+02
         &THERMOSTAT_ENERGY
              -2.0492736732454495E-06
               1.5443866918938560E-03
               2.4172564534324651E-04
              -2.4073244638952024E-03
              -2.1409095369077152E-03
               2.2231886765367477E-03
              -3.0761416414960005E-03
               1.1106346250991045E-03
               4.2874368819734304E-03
              -1.8621531199842977E-03
               4.8917641914764214E-03
              -9.6890336013132549E-04
               2.9190703592848104E-03
              -2.7263217402473156E-04
               7.7477086410126031E-04
              -2.8468118543836345E-03
               2.5379205837896667E-03
              -2.1047702261997019E-03
               1.6125723751148481E-03
               3.8120955020657694E-04
              -4.1429595820689172E-04
               1.8028005784157832E-03
              -1.0833776695198972E-03
               2.0757227657745110E-03
              -3.3024959513660111E-03
              -2.6840088685909187E-03
               2.3655791636329553E-03
               7.1801347525965236E-04
               4.9754431511057256E-04
              -3.5321488955329590E-04
              -2.1506778753837934E-04
              -1.1912207260224850E-03
               6.4988345075517383E-04
               1.3625076325123812E-03
              -2.8604520739917896E-03
               3.0329043691318886E-03
               4.8488784073187174E-04
              -7.9677217037109446E-04
               3.6703227646969327E-04
               2.3319890796776105E-03
               2.6883969390288955E-03
              -2.8839641784690305E-03
              -5.6404196930163152E-04
               3.6479350822405361E-03
              -1.9116715549793071E-03
               4.0380423662433217E-04
               1.5728788298112283E-04
               1.6650053509718958E-04
              -1.5669567300067113E-03
              -7.1575977845503443E-04
               3.1122664207219584E-03
               5.1184825825558334E-04
              -1.4326586625126093E-03
              -6.9391452229769089E-04
              -1.5239447625230464E-03
              -1.6884703105072061E-04
               1.4008563333629809E-04
               1.5643781743461230E-03
               1.4580229163578652E-03
              -2.6818137004105333E-03
              -9.7486319653830350E-06
               3.7814510579950930E-03
               2.0834130343810598E-05
               1.3397443999978351E-03
              -2.2892561263291871E-03
               2.1207338158217778E-03
              -9.4289377443746217E-04
               2.5584563347761328E-03
               4.9008058390790862E-04
               4.2091214342101032E-04
              -9.5881769032636567E-04
              -6.4885271344773283E-05
               6.2037926477573650E-04
              -5.7092739574105932E-04
              -2.6405355742901857E-04
              -2.4805587531046731E-03
               1.4368805412850729E-03
               2.4273389199196359E-03
               3.8478736874876019E-03
               3.8262839750679493E-04
              -1.1150989681752083E-03
              -1.0627573754035901E-03
              -1.7252425734723411E-03
              -2.6156750068282640E-04
               2.5433674463123642E-03
              -1.4480675301468101E-03
               1.4434957698842440E-03
               1.3820439671891360E-03
              -4.6252181709784427E-04
              -2.6152881279135729E-03
               2.5463746861638216E-03
              -1.5155977337739327E-03
               6.6705862487480825E-04
              -2.0562604626305275E-03
              -2.7550921433101062E-03
               1.7504271364405751E-03
               1.0548632989202202E-03
              -6.4970472027181926E-04
               1.1795417819236019E-03
               1.8199137097057010E-04
               2.3670116319251519E-04
              -1.6511720711141116E-03
              -5.0824006901560982E-04
               1.6600589356230671E-03
               5.3665501283196530E-03
              -4.4756207358782676E-03
               1.0643548779514636E-04
              -8.9962201803729408E-04
               3.5022093469216013E-03
              -2.8904534086624694E-04
               3.0818707325962671E-03
               6.2690546727719727E-04
               3.8868142374201884E-04
              -6.7350404654357326E-04
               8.2832468657164965E-04
               5.2237367633871821E-03
              -9.5861780561873229E-03
               1.0898541285986009E-03
               5.7643057077549843E-04
               2.3764943480828236E-04
              -2.4311510590142532E-04
              -1.9531412702580311E-04
               5.2273518425357589E-03
               3.2252189324802631E-04
              -4.0840480145012690E-03
              -4.0418455692193900E-03
               4.0216202546966226E-04
               2.5082370788587520E-03
               2.7898292683716864E-04
               3.9162348175252873E-04
              -1.9815269520263154E-03
              -1.7846561792273568E-03
               2.0016499911783619E-03
              -5.6107958270276799E-03
               6.8799537127599525E-04
              -4.1217948236421924E-04
              -1.2806946752993992E-04
              -2.1987704440947116E-04
               8.6135502715929159E-04
               6.3617101484367874E-04
              -1.2664826742110765E-04
               2.9413432707090068E-03
               5.5615970787481071E-04
              -9.6147878829998419E-04
               4.4245505092457707E-05
               1.7511600312121243E-03
               7.7752977526014699E-04
               1.3375749988924716E-04
              -2.2209470213233203E-03
               2.7736005773638843E-03
              -1.0367832863159819E-03
               1.8911019557123539E-03
              -1.3604165061395950E-03
               3.4173302293316978E-04
               8.0898968917442107E-04
              -6.1496415619209221E-04
               9.4412147220041681E-04
              -2.2233740193988334E-03
              -8.4358121545037253E-04
               4.2637981358436255E-03
              -1.6304781174672168E-03
              -4.9061674452677293E-03
              -8.3398785911991660E-04
              -2.5471402264164535E-03
               2.2515012591197642E-03
               4.4469778779074615E-03
               2.8534849543700148E-03
              -1.4395775339698374E-03
              -5.3802504978656988E-03
               2.2472593769253435E-03
              -9.8218631960363286E-05
               3.2685041646762164E-03
               2.8122642182942859E-03
              -2.1363262787317885E-03
               1.7814519070415871E-03
               1.5268662497780203E-03
               2.8365926616711538E-03
               6.1117674136415999E-03
              -9.8188530622967361E-05
               1.4780090825889530E-02
               6.2600079804023799E-04
               1.8508533687358766E-03
               2.7061224737312071E-03
               2.5722445200138387E-04
               1.5783359372447711E-03
               3.5294568792794200E-04
               2.6453548961116210E-03
              -2.3337156010829335E-03
              -3.8700271791992681E-03
              -6.3396239351109617E-04
              -3.9499930352784169E-04
               3.0726955747119306E-04
              -1.6542046504918200E-03
              -1.5364246935500180E-03
               7.9716014333419401E-04
              -5.0080432078639288E-04
               2.9872765816011662E-04
               2.6480778352941203E-03
              -2.7052393217476245E-04
               5.1104912607946975E-04
              -6.9265632676855670E-04
               1.0565102995359107E-03
               8.3929823344769676E-04
               1.5304418667304708E-03
              -3.3131535046796454E-03
              -3.6641293248498748E-03
               1.1783767120391944E-03
               3.1099332961865254E-03
              -1.2281576204379017E-03
               1.5600160607674072E-03
              -2.3166004439688096E-04
               3.1729804608859402E-04
               2.3432979763499877E-03
              -1.3750866830772655E-03
               3.9103152961923087E-04
               6.5634023463619008E-04
              -2.5610887660062914E-03
               6.1744989909814614E-04
              -2.4001857746747020E-03
               1.7781223343491393E-03
              -4.8572354145312113E-04
              -4.5006670514233216E-04
              -3.1550259501956475E-03
              -1.4978574176369603E-04
               4.0775815323022624E-03
              -9.4007395727289391E-04
               1.5623013679031013E-03
               5.0525734794033697E-04
              -5.6546422796926240E-04
               1.2801024283109086E-03
               3.0957422525091749E-04
               7.9169275055252625E-04
              -2.6184584109502020E-03
               6.3249907653771217E-04
               2.2046509070884489E-03
              -3.5058753213014775E-03
              -6.3766074161697561E-05
               1.1760667613054468E-03
               1.0534202430521494E-03
              -3.9425208724665647E-05
              -1.7528160346818077E-03
               1.0626890588551852E-03
              -3.8276961350061363E-04
              -1.4159941069754329E-03
              -3.1597043637622091E-04
              -1.7025221043276894E-03
               1.0165487217386048E-03
               1.6915170872462675E-03
              -4.2252121332752245E-04
              -6.3939847132707707E-03
               3.7023643263723086E-03
               5.9791362959742296E-04
              -2.4611621765790168E-03
              -3.8901659221824217E-04
               1.8777338400876899E-03
               1.2160265523501004E-03
              -4.0811343511234464E-03
              -1.0858382045892680E-03
              -1.2024722805932804E-03
              -1.9937321621442466E-03
               2.8966377250128691E-04
               5.2500160197732279E-05
               4.0783564279538794E-04
               6.8072402964171406E-04
               5.3473368008386257E-03
              -1.6877565616784632E-03
               1.3296700566775019E-03
               3.0331879156930783E-03
               2.6614284907827115E-04
               8.6587873056478189E-04
               3.2308716336489456E-03
              -4.8215947052051879E-03
               4.5766379109362593E-03
              -1.3251807191488483E-03
              -2.3516614332926293E-03
               1.0381698679193053E-04
              -6.7662850594914347E-03
               5.8159622857205905E-03
               1.3966895423600677E-03
               1.8059492790419886E-03
              -1.5348637394947849E-03
              -4.3833648658492212E-03
              -2.6208870937214203E-04
               4.1818353687641816E-03
               2.7741674825189063E-04
               1.0219226148113095E-03
               2.2994539667924468E-03
              -3.1177375287662528E-03
               1.5058153701556004E-03
               2.7354581054738001E-04
               7.9465573877852327E-03
               1.3198626200460147E-03
              -1.9939083892175959E-04
              -3.7050687826175888E-04
               9.2367037093750329E-04
               5.9559125597454902E-03
              -2.9892166865288848E-03
               3.6483264455021737E-03
              -4.1572345028200236E-03
              -1.7248100001656743E-03
               5.4506625194156893E-04
               1.3195536542514299E-03
               7.9861752265812246E-04
               4.7295176821964529E-03
              -2.0214546611745476E-03
              -1.2387897903705068E-03
              -3.0159084896788113E-03
               3.4429184797377960E-03
              -3.6282021306405492E-03
               8.0269574694632020E-04
              -8.9197182370502213E-04
              -4.5389597029752527E-04
               4.7915102735237138E-04
               1.3585030824196146E-03
               1.3015351031748946E-03
              -1.3536337475014083E-03
               9.0068609472663142E-04
               1.2552774941293288E-03
               2.1712718144968049E-03
               2.7747362456437552E-03
               1.2812722561468771E-03
              -1.8610963349378145E-03
               1.8700724155696843E-04
              -1.8380736469608336E-03
               1.7894520045045469E-03
               9.4126571734736775E-04
              -9.6336930464759014E-05
               1.1884395564891173E-03
               7.0405086090174259E-04
              -1.1530688575731151E-03
              -1.2049009979425247E-03
               3.9931656567194886E-03
              -2.1496663733688642E-05
               1.8913871967611094E-03
              -1.7764853407056321E-03
              -2.4950577466615227E-03
              -4.3245148558767357E-04
              -1.2680146996698551E-03
               6.6668522096053424E-04
               1.1756862219271843E-03
               1.3123729134772299E-03
               1.9374134620056647E-04
               4.2327681947182680E-03
               2.3785504525673058E-03
              -1.2158213222815391E-03
              -4.4537678065316482E-04
               1.2186420341382615E-03
              -2.6525603248060280E-03
               9.5957052452838696E-04
              -4.1687589069406067E-03
              -5.1681824039397832E-04
               1.2502243150265117E-03
               3.3701886733063214E-04
               3.1404728590791247E-03
              -1.0584231711744992E-03
              -8.3688725293720983E-04
               1.6336387853628813E-03
              -1.4727296829646357E-04
              -8.6697527154941194E-04
              -2.1863513730801683E-03
               2.3709928994529996E-03
              -8.6197703327287804E-04
               3.4770168248557205E-03
               1.9188064642589318E-03
              -5.7622224574109949E-04
              -4.7910056503148643E-04
               8.5256625159730627E-04
               6.7685490307311367E-05
              -3.4077486595785376E-03
              -9.2385136327008779E-04
              -9.2141669907022693E-04
               1.0473267267675558E-03
               2.0568170377490425E-03
              -2.0822442510819647E-03
              -3.3349218524235877E-03
               3.9933978914999200E-03
              -1.2081370747787069E-03
              -4.3523451211249994E-03
               4.2656529892867658E-04
               1.9772583410382410E-03
              -1.5771233063979608E-03
               1.3394555812881769E-04
              -6.3956878382168179E-04
               5.0800455874518635E-04
              -2.5602755668977222E-03
               1.4224321153037209E-03
               9.8744974539923870E-04
              -9.5419183187204245E-05
               3.0440571361441154E-04
               4.8716089026874549E-04
              -7.2761056284540644E-05
               2.9755904388618797E-03
              -2.6457171987380942E-03
              -4.8968357108979490E-04
               9.7418744373882569E-04
              -1.0948384458770557E-03
              -2.1874410675097118E-03
               6.5565796160647061E-03
              -1.7073651794567027E-03
               2.6680292634357488E-04
              -2.0285410644534626E-03
               1.6128666369135110E-03
               2.7528567416417438E-03
               1.9992024749084839E-03
               1.0854093255624649E-03
              -3.7923598382387808E-03
              -5.1610462466857316E-03
               3.5044862691949240E-04
               1.0739020954829953E-03
              -6.9161855475516733E-04
               1.3295000251564964E-03
              -1.2052256584276335E-03
               2.6914003165809911E-03
              -1.4341720736151171E-03
              -4.8177816981458390E-03
               5.2218407011684091E-03
              -5.1857074178932798E-04
               7.8175034697321644E-04
              -1.0410427231623092E-03
              -3.8282965237478533E-04
              -5.1355018947131081E-05
              -1.5410985398383458E-03
              -8.8575248683703495E-04
               1.5175054199201576E-03
               9.2300558171640862E-04
               4.2710586217451770E-04
              -5.1164088810069569E-04
              -4.3175133404651529E-03
               4.0429157539327039E-04
               2.5898965116034384E-03
              -2.1099969022470152E-03
              -1.8103501689327229E-03
              -6.7814260466317073E-04
               1.3304730176541576E-03
               2.6303961041699766E-03
               1.0172326043201478E-03
              -3.7085774328700198E-04
              -7.2732512524477670E-04
               2.7173546709126936E-04
               9.8020370794327976E-04
               2.2418688807728628E-03
              -2.0966812690398108E-03
              -1.8975697505562649E-03
              -8.2642943686664876E-05
              -9.3275345088398860E-04
              -5.6757155121968373E-04
               1.3605724802524881E-04
              -5.7997113103181092E-04
               2.2700172102821459E-03
               3.1706907520264657E-03
               6.8938720014753404E-04
              -2.0091416958919676E-03
               4.4298703354446935E-03
               1.1717981311939406E-03
               4.5223979637662388E-04
              -3.1288754823410344E-03
              -1.8345238362921200E-03
               1.6200553465152280E-03
               1.5786101059287550E-03
              -1.2151214709621647E-03
              -1.5284025417255497E-03
               1.3616213121578351E-03
              -1.6490096259205731E-03
               1.1408373033528101E-03
               2.5179692102802356E-03
               8.5230598911633683E-04
               2.1498017397261380E-04
              -1.4711336615130721E-03
               3.0173399298473095E-04
               4.4239718252961710E-04
              -2.7727617051063070E-03
              -1.4603642186335958E-03
               4.1062903192908683E-03
              -8.4143783954078815E-05
               5.4663354791639838E-04
               2.6323026005745493E-03
               3.7895919010108955E-04
               8.2584241008991594E-04
              -1.0512395425131789E-03
               1.3285755942167342E-03
               1.9333982145771549E-03
               2.0999781052653756E-04
              -6.6121406829754950E-04
               1.9951498027240182E-03
              -1.4637953539535207E-03
              -1.3500714141238108E-03
               1.1333122706623387E-03
              -4.1588658455368310E-03
               3.5186199525208540E-03
              -6.6316688109745647E-04
              -7.7029622895523017E-04
               6.6433271885272616E-05
               1.0311554547463129E-04
               2.3063180998780172E-03
               9.6883042916567430E-04
              -4.9545625959538763E-04
               4.0212380905243240E-03
               2.4042433606811897E-03
               1.0005135110041112E-03
              -1.3534669805278263E-03
               2.3486315366099894E-03
               4.0075457403759997E-04
               5.0455762779998917E-06
               2.2523135584954923E-04
              -5.4941254895187418E-04
              -2.0532496099790361E-03
               2.1950831228403239E-03
               9.2495392550708683E-04
               1.8182370549105972E-03
              -9.9088362058645909E-04
               7.7147127047820984E-04
               1.3363872142046281E-03
              -1.9489323037170890E-03
              -2.3617172476076004E-03
               2.4585090477825533E-03
              -1.7235902289895466E-03
              -1.1406744484609996E-03
               2.1336622577008994E-03
               9.1248183799937457E-04
              -1.6066370201697840E-03
              -9.0754423363762339E-04
               6.1544848608771326E-04
               5.5475356253658552E-04
               2.4713201217835181E-03
              -3.3909397553228710E-03
               3.8448919955473950E-04
               6.0978757913455887E-04
               1.5889817098729084E-03
               4.1390834128308511E-03
               1.6331284832199634E-03
              -2.2553892683218136E-03
              -3.8703882848852410E-03
               2.6346664529142104E-03
              -2.4847805894852183E-03
               4.9256530200921542E-04
               8.9319838675153542E-04
              -1.2321934416349902E-03
               3.2671040160488359E-04
              -1.8117943806404632E-03
               2.3078769132824687E-03
               2.1809241871989758E-03
              -1.6124985946892123E-03
              -2.5049118781648966E-03
              -4.7413787669392413E-04
               3.0161167394539864E-04
               1.4567214157337359E-04
               9.7722610466455094E-05
               2.2142469926457625E-03
               2.6707237605229822E-04
               4.8236863990980114E-03
              -3.4587029053834701E-03
              -2.1063954677367760E-03
               3.0876931606173166E-05
               7.8728494535201419E-04
              -3.9031217817084661E-06
              -4.7760036759815624E-03
               5.4395586147935162E-03
              -2.9363073154239547E-03
               3.7704298034874450E-03
               1.0228172155744449E-03
               2.1835418722869989E-03
              -5.1802627009119202E-05
               4.5824480956365668E-04
              -2.3008931201522827E-04
              -1.0058051832978233E-03
               1.7955763521740702E-03
              -3.6672930444858541E-03
              -2.4875846196739868E-03
               1.7140065002031013E-03
              -4.2079919222712541E-04
               2.2378023792719044E-03
              -7.3517159890334137E-04
              -1.5025776402651906E-03
               2.2389559999846688E-03
               4.0373842857536592E-03
              -4.0604258295177734E-03
               4.0760571471949933E-03
               6.4511381216058551E-03
              -6.3688798545158166E-03
         &END THERMOSTAT_ENERGY
         &RNG_INIT
Wiener process for Thermostat # 1        1 F T T  -5.1594232300253351E-01        1131297282.0        1211631740.0        2440609120.0         280351594.0        4169944131.0        2241857172.0             12345.0             12345.0             12345.0             12345.0             12345.0             12345.0             12345.0             12345.0             12345.0             12345.0             12345.0             12345.0
Wiener process for Thermostat # 2        1 F T T  -3.9952893432785613E-01        3537343306.0        4101078106.0        1787773489.0        1522398930.0        2453240089.0        2651583813.0        3692455944.0        1366884236.0        2968912127.0         335948734.0        4161675175.0         475798818.0        3692455944.0        1366884236.0        2968912127.0         335948734.0        4161675175.0         475798818.0
Wiener process for Thermostat # 3        1 F T T  -1.0439168462831926E-01        4074027307.0        3154243317.0        2632093967.0        3271467565.0        2371417742.0         986155232.0        1015873554.0        1310354410.0        2249465273.0         994084013.0        2912484720.0        3876682925.0        1015873554.0        1310354410.0        2249465273.0         994084013.0        2912484720.0        3876682925.0
Wiener process for Thermostat # 4        1 F T T   1.7999950733811224E-01        2358195365.0        3570083549.0        1326769659.0        1250257075.0         438492861.0        3340948192.0        2338701263.0        1119171942.0        2570676563.0         317077452.0        3194180850.0         618832124.0        2338701263.0        1119171942.0        2570676563.0         317077452.0        3194180850.0         618832124.0
Wiener process for Thermostat # 5        1 F T T  -1.6037984157473455E+00        2431351866.0        1897455294.0        2544042736.0        1024514237.0         482569460.0        1761159987.0        1597262096.0        3906379055.0        3312112953.0        1016013135.0        4099474108.0         275305423.0        1597262096.0        3906379055.0        3312112953.0        1016013135.0        4099474108.0         275305423.0
Wiener process for Thermostat # 6        1 F T T   1.0054307461153029E+00        1896829413.0         834456879.0        2745000633.0        1917437101.0        2044090030.0        1934137116.0          97147054.0        3131372450.0         829345164.0        3691032523.0        3006063034.0        4259826321.0          97147054.0        3131372450.0         829345164.0        3691032523.0        3006063034.0        4259826321.0
Wiener process for Thermostat # 7        1 F T T  -1.8174880281656693E+00        1522500563.0        1108792045.0        3420944752.0        3018584097.0        3871761464.0        2236113708.0         796079799.0        2105258207.0         955365076.0        2923159030.0        4116632677.0        3067683584.0         796079799.0        2105258207.0         955365076.0        2923159030.0        4116632677.0        3067683584.0
Wiener process for Thermostat # 8        1 F T T   1.1538593382850411E+00          48896210.0        3899903509.0        1881783467.0        2308026436.0         383343244.0        2367443883.0        3281794178.0        2616230133.0        1457051261.0        2762791137.0        2480527362.0        2282316169.0        3281794178.0        2616230133.0        1457051261.0        2762791137.0        2480527362.0        2282316169.0
Wiener process for Thermostat # 9        1 F T T   2.8788468630587605E-01        4241630646.0         991144752.0         355177975.0        1005962149.0        2335898887.0         650083612.0        3777646647.0        1837464056.0        4204654757.0         664239048.0        4190510072.0        2959195122.0        3777646647.0        1837464056.0        4204654757.0         664239048.0        4190510072.0        2959195122.0
Wiener process for Thermostat # 10       1 F T T   1.4795953232684680E+00        4231210077.0        1675597484.0        1615807535.0          64507541.0        2802770127.0        2171250065.0        4215590817.0        3862461878.0        1087200967.0        1544910132.0         936383720.0        1611370123.0        4215590817.0        3862461878.0        1087200967.0        1544910132.0         936383720.0        1611370123.0
Wiener process for Thermostat # 11       1 F T T  -2.9677903107341752E-02        3074773784.0        2139147906.0         665995322.0        1141510697.0          26627632.0        2378463195.0        1683636369.0         362165168.0         814316280.0         869382050.0         980203903.0        2062101717.0        1683636369.0         362165168.0         814316280.0         869382050.0         980203903.0        2062101717.0
Wiener process for Thermostat # 12       1 F T T  -3.8532394411429438E-01        3802949763.0        2351463086.0         901084535.0        1712023518.0        1331809143.0        1923931590.0         272317999.0         166758548.0         310112982.0         201045826.0        1680231254.0         118290799.0         272317999.0         166758548.0         310112982.0         201045826.0        1680231254.0         118290799.0
Wiener process for Thermostat # 13       1 F T T  -3.3863394446829803E-01        2895787483.0        2919055390.0         371560780.0        3064381019.0        2845655576.0        3300960890.0        2245755202.0        1652682525.0        2865544364.0         721509566.0         209733568.0         592362218.0        2245755202.0        1652682525.0        2865544364.0         721509566.0         209733568.0         592362218.0
Wiener process for Thermostat # 14       1 F T T  -1.1494187610962756E+00        1469581910.0        3588950385.0         780716732.0         539370378.0        2772232040.0         264370520.0        3003961408.0        3529909391.0          14538032.0        3603919910.0         566682685.0        1235016484.0        3003961408.0        3529909391.0          14538032.0        3603919910.0         566682685.0        1235016484.0