 # Version information for this restart file 
 # current date 2024-11-21 19:18:54.964
 # current working dir /scratch/work/courses/CHEM-GA-2671-2024fa/students/jw8872/comp-lab-class-2024/Week12-IntroAIMD/Runs/Proton
 # Program compiled at                              Sat Dec 12 18:27:15 EST 2020
 # Program compiled on                                         cs001.nyu.cluster
 # Program compiled for                                                nyu-intel
 # Source code revision number                                       git:8c64c6e
 &GLOBAL
   PRINT_LEVEL  LOW
   PROJECT_NAME proton_aimd_1ns_every0.5fs
   RUN_TYPE  MD
   WALLTIME 21600
 &END GLOBAL
 &MOTION
   &MD
     ENSEMBLE  NVT
     STEPS  2000
     TIMESTEP     4.9999999999999994E-01
     STEP_START_VAL  159
     TIME_START_VAL     7.9500000000000071E+01
     ECONS_START_VAL    -1.1027999832999169E+03
     TEMPERATURE     3.0000000000000000E+02
     &THERMOSTAT
       TYPE  GLE
       REGION  MASSIVE
       &GLE
         NDIM  5
         A_SCALE     1.0000000000000000E+00
         A_LIST     1.8595758612559999E+02    2.7263853498399998E-01    1.1526100454610001E+01   -3.6414578262600003E+01 \
             2.3173375816020001E+02
         A_LIST    -2.7809524712060002E-01    8.5951591808710006E-05    7.2189048017650004E-01   -1.9844539343859999E-01 \
             4.2409257583420001E-01
         A_LIST    -1.4825808131210000E+01   -7.2189048017650004E-01    1.3590902121280000E+00    5.1498896280349999E+00 \
            -9.9949268450990001E+00
         A_LIST    -1.0372189126880000E+01    1.9844539343859999E-01   -5.1498896280349999E+00    2.6661910891169999E+01 \
             1.1507715495310000E+01
         A_LIST     2.1801346360420001E+02   -4.2409257583420001E-01    9.9949268450990001E+00   -1.1507715495310000E+01 \
             3.0958394565589998E+02
         &THERMOSTAT_ENERGY
               9.5567128714128645E-05
               9.3771891938757349E-04
               3.9781138283733207E-04
              -1.7233219635810946E-03
              -2.0495129143052199E-03
               2.2585072418131371E-03
              -3.3014761999831253E-03
               1.0633756588939571E-03
               4.2064299250395652E-03
              -1.0561090595013448E-03
               5.0669929779408223E-03
              -1.1051459211596068E-03
               3.0126682295055353E-03
              -3.8633764043695873E-04
               7.6907813945490788E-04
              -1.9779649119067589E-03
               1.4152032483336382E-03
              -2.1609843541122837E-03
               1.3116393172739600E-03
               3.7674561604997812E-04
              -2.4110664806060926E-04
               1.7955222296721749E-03
              -1.1413039194060721E-03
               2.5901920794851826E-03
              -3.2424519369718863E-03
              -2.7923065098217291E-03
               1.9418871793023414E-03
               7.0853775832888999E-04
               5.0390124889741240E-04
              -2.9944522365716594E-04
              -3.4476302793502310E-04
              -1.1177832417763431E-03
               6.2856991747463483E-04
               1.2752446257171055E-03
              -2.8846481808498855E-03
               3.1933795689502776E-03
               4.6213777195693457E-04
              -4.4793118596326263E-04
              -1.1249682659600999E-03
               2.3784427112755603E-03
               2.6936622111201993E-03
              -2.5145792723570096E-03
              -7.1122968308369070E-04
               3.7275508622068134E-03
              -1.9880623503285904E-03
               5.2035716063149242E-04
               2.7913979846579085E-04
               6.0625315578222323E-05
              -1.5492280568689407E-03
              -6.3935325253794818E-04
               3.1018118684693107E-03
               3.8354917428243989E-04
              -1.3244231648718186E-03
              -6.9935071480324280E-04
              -1.6453944863943548E-03
               1.0904951418306556E-04
              -2.3404490194180074E-04
               1.6428004199440602E-03
               1.2014050870859162E-03
              -2.5253919117724354E-03
               7.3687949919892326E-05
               3.7210159069574348E-03
               2.6200236043500043E-04
               1.5327562366824355E-03
              -2.0810511158892708E-03
               1.2010360391488096E-03
              -8.1469179651392490E-04
               2.6053000751674019E-03
               3.8283452262545406E-04
               2.8884119566025522E-04
              -6.7914477289478204E-04
               9.3251523412344993E-05
               2.6032154227935921E-04
               9.2338479908390773E-05
              -1.9523924757856623E-04
              -2.5811469733605791E-03
               1.4418443071015836E-03
               3.1880182854590621E-03
               3.1773146825649604E-03
               6.7562527627896163E-04
              -2.0980090953177984E-03
              -1.6078789678125977E-03
              -2.0667556518339444E-03
              -1.3337516917427607E-04
               1.3367799643643347E-03
              -1.3256859732333475E-03
               1.1635978692350788E-03
               1.7338593166881370E-03
               8.4641394977356043E-05
              -2.5902929894929191E-03
               2.0208779677769848E-03
              -9.9415576627127607E-04
               1.6014348276638510E-04
              -1.9917411932022671E-03
              -2.7958263107150483E-03
               1.7802709836228455E-03
               1.5874294873221314E-03
              -2.9627630403896671E-03
               1.9233493290203062E-03
               1.7632348103444021E-04
               1.9276028800302338E-04
              -9.8922358093621017E-04
              -7.6554579875905940E-04
               1.5376366465480488E-03
               4.3532686874666899E-03
              -4.5128873246618861E-03
               4.7508361229749746E-05
              -7.8342898662417555E-04
               2.7949565074294625E-03
              -4.7667031336000158E-04
               3.2129104065573787E-03
               5.9591332013889304E-04
               4.3706340827823860E-04
              -7.5363839464479649E-04
               1.2203742772793455E-03
               4.9516612593949513E-03
              -9.9283933533548616E-03
               1.1256941449399129E-03
               5.8069145119410957E-04
               2.3317856972893819E-04
              -2.6312542907380162E-04
               7.8541167265802386E-04
               5.0201841422424665E-03
               2.5141681881807830E-04
              -4.1606387042438953E-03
              -2.8421550825201234E-03
               8.3760117148824319E-04
               2.3700734300819036E-03
               1.7536629118094680E-04
               1.2711327291344240E-03
              -1.7703200030219338E-03
              -1.7756644018035389E-03
               1.4311179819722251E-03
              -5.7195895429352260E-03
              -3.2423179163531624E-04
              -7.5704844269069234E-04
              -7.0192445465636045E-04
              -2.2195837251808058E-05
               8.5070003951830890E-04
               7.6239114777950658E-04
               3.7686029616409490E-04
               2.4943297889466606E-03
               5.5605448322630776E-04
              -1.2195456813506281E-03
               7.3407896949719519E-06
               1.8097696258966636E-03
               9.7066200095454077E-04
              -2.4962697874839307E-05
              -2.5157484114320984E-03
               2.9510622059678751E-03
              -1.2682075405389258E-03
               1.6807808562640885E-03
              -1.3874629180397199E-03
               6.8464041768334118E-04
               7.9826006367606558E-04
              -3.0978235802657999E-04
               9.3045114431237769E-04
              -2.3847177943039808E-03
              -4.7580792077525776E-04
               4.2201286760772949E-03
              -1.5595821215235149E-03
              -4.3319500677993263E-03
              -6.9345041015512533E-04
              -7.0542430214865220E-04
               2.5378703330100425E-03
               3.4405048941701794E-03
               2.2845603780249279E-03
              -1.4031567639247830E-03
              -5.1187188942032396E-03
               2.1082785850041609E-03
              -5.7496789405262485E-05
               3.3123894497801209E-03
               2.8189567770619708E-03
              -2.4327195134794997E-03
               1.7288179543939785E-03
               1.3233403869529878E-03
               2.9367695439062951E-03
               6.1838589842159036E-03
              -9.1013149619949447E-04
               1.4704529763120127E-02
               3.2354813544502537E-04
               1.9578567495448706E-03
               2.6774366100679567E-03
               1.6251814993241143E-04
               1.5724656452173961E-03
               4.1615513792202447E-04
               2.5786785632791859E-03
              -2.1846884487040684E-03
              -3.8271003733726283E-03
              -8.0071540389031867E-04
              -1.0182124965170273E-03
               3.0643831981244928E-04
              -1.3586099701910002E-03
              -8.1544398603325635E-04
               7.5289093286836316E-04
              -2.6477961390942203E-04
               3.2743201525739274E-04
               2.6908071436772536E-03
              -1.6648334156517129E-04
               4.9968716856831129E-04
              -8.8738395196669650E-04
               9.7131322287900780E-04
               9.0704685814346731E-04
               1.7571238686666117E-03
              -2.6951594346755437E-03
              -3.2869236801260811E-03
               1.1433989253829783E-03
               2.5114620683326185E-03
              -2.7976486290329878E-04
               1.4087381423153096E-03
              -3.6914417032387421E-04
               5.4404001048202278E-04
               2.2996155447755915E-03
              -1.6821414378507761E-03
               2.2913637140870859E-04
               1.2171637226631978E-03
              -2.4346753550253258E-03
               5.7292211429743568E-04
              -2.7465805681171859E-03
               1.7958536919365942E-03
              -1.3888214701606814E-03
              -8.8709261874331128E-04
              -3.0573795711475388E-03
              -9.7092775204594688E-05
               4.0176763719000043E-03
              -8.1404149073318992E-04
               2.1264730106343114E-03
               4.0545217287920649E-04
              -5.1880136765371557E-04
               1.2075988722100757E-03
               2.8476729098502937E-04
               2.1565156335542467E-03
              -2.8421051424381131E-03
               1.5001989977143535E-04
               1.4195771216539820E-03
              -3.6297407721061839E-03
              -9.2560126096498025E-05
               1.3161052838922621E-03
               1.1139945304089972E-03
              -7.3329293932317927E-05
              -1.7350656404339407E-03
               1.0710247067443010E-03
              -7.8726926818229793E-04
              -2.6667730602855525E-05
              -3.7440513331714385E-04
              -1.7800300889564782E-03
               9.2153783543828815E-04
               2.2627671988226473E-03
              -1.7534667536171861E-04
              -5.1972012680900296E-03
               3.5784739954004873E-03
               5.7799154949562449E-04
              -2.4109537017412311E-03
              -3.6843024114480453E-04
               1.9113522193487833E-03
               6.5831557897453523E-04
              -4.6847595311306734E-03
              -1.0264395661318964E-03
              -1.0423257453763064E-03
              -1.8745741809260349E-03
               4.5806289031006327E-04
              -5.5111128216950994E-05
               4.1837503941375445E-04
               7.1098857336060017E-04
               5.3250682259742815E-03
              -1.7074159091673975E-03
               1.4110901879213445E-03
               3.9097197441991484E-03
               2.5089224641500056E-04
               1.2842266134843144E-03
               3.2520145191597908E-03
              -4.4150003909101329E-03
               4.7314447872597145E-03
              -7.4990572132351539E-04
              -2.8628187422958563E-03
               8.4293703090348353E-05
              -7.0328996107022028E-03
               5.7305718617196638E-03
               1.9234311907081862E-03
               1.7486732910977690E-03
              -1.3512569247165539E-03
              -4.4473524755598189E-03
              -3.4761943270140549E-04
               4.3513723852270500E-03
               1.1983005030744075E-05
               1.6397006451684569E-03
               2.2732368825040465E-03
              -3.5912533721097883E-03
               1.4926597485959339E-03
              -8.3227812480077094E-05
               7.3789915311109526E-03
               1.1831981014006380E-03
               1.0310288126820262E-05
              -3.4138521516324799E-04
               1.0327486544404263E-03
               5.8514803400918115E-03
              -2.8192866567716191E-03
               3.6643558841642711E-03
              -3.7692635281423989E-03
              -1.7176026530427357E-03
               1.2109837195332864E-04
               1.7853667206865610E-03
               6.8294587579407757E-04
               4.5878103001035508E-03
              -1.1321348243016533E-03
              -1.1364751045908948E-03
              -3.3338887294224371E-03
               4.6051146399073081E-03
              -3.4813135604099556E-03
               7.3775455669510969E-04
              -9.1972305870071476E-04
              -4.1086835030499231E-04
               7.9131711165789434E-04
               1.2337721861786755E-03
               1.2800046752776660E-03
              -1.3733265152325322E-03
               9.2389935719700835E-04
               1.2336567864964171E-03
               2.1270738291960189E-03
               2.7441361059949679E-03
               8.3138101924858489E-04
              -1.6192244791718136E-03
              -6.2576788419566997E-04
              -1.8519790545749820E-03
               1.2432443035914904E-03
               9.6857240136921966E-04
              -2.5862391847034360E-04
               1.1745771819590487E-03
               5.5858297456735950E-04
              -1.7641432890937764E-03
              -6.1439511319626508E-04
               3.7379188692175111E-03
              -5.5493718446756452E-04
               1.7157782413882846E-03
              -1.2146335958628130E-03
              -2.7243150180653215E-03
              -3.5302954531487354E-04
              -1.5970808295334800E-03
               6.4874215986821361E-04
               1.2363975619424886E-03
               1.3141492080510193E-03
               5.7847680867350150E-04
               4.2438040461841289E-03
               2.1178893957176205E-03
              -1.2876763963026604E-03
              -4.2532230975359691E-04
               1.2205947937748839E-03
              -2.0832108738206255E-03
               8.0124483343712216E-04
              -3.7184261821503672E-03
              -4.7282097779284755E-04
               1.3067660609751047E-03
              -5.9787495334780454E-04
               2.9852220124155504E-03
              -7.1774382118031240E-04
              -7.0273946639686879E-04
               1.8324120316558171E-03
              -2.7169176559833122E-04
              -1.5097627906897812E-03
              -2.1617171214257250E-03
               2.5250011835992263E-03
              -8.8337062627892615E-04
               3.7897644308926112E-03
               2.1917595797873789E-03
              -1.8294173531058867E-04
               5.3289753370407090E-04
               8.7394142926516967E-04
              -4.4607137005508014E-05
              -3.9981695237817898E-03
              -9.6488076777448385E-04
              -1.1617580266897562E-03
               5.9284104716505342E-04
               1.9134569231272266E-03
              -1.8488978367781743E-03
              -3.0932272504406054E-03
               4.0941695196895457E-03
              -6.5589477441988127E-04
              -4.3830611371122501E-03
               8.4740478184830729E-04
               2.0242199390877037E-03
              -1.0798014017414899E-03
               6.3354248147790232E-04
              -4.9423403576309840E-04
              -2.2478924731556590E-04
              -2.5049824577990463E-03
               1.4832468411249806E-03
               9.8251601807857239E-04
               1.4358104278348963E-05
               4.6925204430732639E-04
               5.0973230906264857E-04
              -2.6452977629865893E-06
               2.9299449325449660E-03
              -1.1220407043539419E-03
              -7.3785524219090008E-04
               9.1118062722074468E-04
              -1.4433453353748273E-03
              -2.0884315583231819E-03
               6.5540474510339640E-03
              -1.3106224852892801E-03
              -2.3428592267821138E-04
              -2.1050502247580800E-03
               1.5597788907055091E-03
               2.7656552895528159E-03
               1.6983507432910090E-03
               5.2426597127867174E-05
              -3.7959354591295697E-03
              -4.5413602578015817E-03
               2.8461753506025308E-04
               1.0335499240246046E-03
              -8.3315330204900538E-04
               1.4813335699917426E-03
              -1.7675049090780394E-03
               3.0805619423824081E-03
              -1.1136382523800623E-03
              -5.4187686037065891E-03
               5.4272491551634432E-03
              -2.7309690294494176E-04
               7.9276694584356718E-04
              -1.0425839551212385E-03
              -1.4567752051583468E-04
              -8.2793003703258939E-04
              -1.8196028659441736E-03
              -5.0286104025348084E-04
               1.3799910214804022E-03
               8.9022164883591074E-04
               8.2026356110859254E-04
              -9.8441150529729091E-06
              -4.3400721495760923E-03
               2.3226036397187459E-04
               2.5553270216741811E-03
              -2.2482530984460885E-03
              -1.5461395689799473E-03
              -1.7267483908864573E-03
               1.3878034227736923E-03
               2.6800689024234726E-03
               9.3590527234198924E-04
              -3.3494931303242560E-05
              -8.7838361862621346E-04
               6.6407341148652611E-05
               1.0331321847116075E-03
               2.8658555493002043E-03
              -2.2419656129778133E-03
              -1.4285378604952203E-03
              -6.5623315290265716E-05
              -9.4362117506931675E-04
              -6.3863263558656068E-06
               5.3212573133678854E-05
              -6.4047967875239620E-04
               1.5015832683377178E-03
               3.0264662007562712E-03
               1.2975974832062024E-03
              -1.9741064020763338E-03
               4.0647535592931308E-03
               1.2234785920480868E-03
               5.3258199886668605E-04
              -2.4201194028316713E-03
              -1.8280242273842526E-03
               1.4075881632469381E-03
               1.5683089009145760E-03
              -9.7102246840981830E-04
              -2.4910375583916686E-03
               1.4059516637539584E-03
              -1.6853063427114060E-03
               1.2120030130902935E-03
               2.8399487154906825E-03
               1.3818615660316322E-03
               5.1212889078630446E-04
              -1.2460123111109021E-03
               6.7744432647155056E-04
               3.6054152617915724E-04
              -2.7984310236357753E-03
              -1.7142487282837747E-03
               3.9917630936779566E-03
              -9.1341369797126384E-05
               5.4910920748675726E-04
               2.6040694426557398E-03
               2.8430942269969193E-04
               8.2381052198902353E-04
              -8.8874966126197344E-04
               1.3262662658400787E-03
               1.9437117047635768E-03
              -1.9838053981427310E-04
              -2.2925997046284306E-04
               2.3286752928756761E-03
              -1.1891623419438687E-03
              -1.4299998513501043E-03
               1.1437336729534248E-03
              -4.0676477277740968E-03
               3.2280081642178746E-03
              -8.3256175594175375E-04
              -1.1327414422118137E-03
               8.9706118134386787E-04
               1.9773232510770546E-04
               2.3652283239190314E-03
               9.2078015612156333E-04
               2.5449271006886670E-04
               4.1506595189750375E-03
               2.5273142212169520E-03
               3.2896191075151008E-04
              -1.9030809871315726E-03
               2.5900317070642453E-03
               3.9996540729941090E-04
               9.9609333387871524E-05
               2.1279192991120879E-04
              -5.7675046006170976E-04
              -2.6499838336358199E-03
               2.1092659550417036E-03
               1.6677092530366093E-03
               1.5727920021452253E-03
              -2.5692579120130177E-04
               7.9587794434180491E-04
               1.5787237969342534E-03
              -1.5734959410943204E-03
              -1.9697811001527371E-03
               1.9835842292485724E-03
              -1.7788280794408522E-03
              -1.4941870881764038E-03
               2.5558106070940898E-03
               1.0722984846264745E-03
              -1.6531621381213654E-03
              -9.2408859539374363E-04
               8.5259392185125203E-04
               4.3508330361576627E-04
               3.1385315982706981E-03
              -3.2707406036800919E-03
               3.6073071229333068E-04
               1.1671927397534625E-03
               1.2340882747036465E-03
               4.2450202676542889E-03
               1.1678026159756823E-03
              -2.2954174869845409E-03
              -3.8089185691395030E-03
               2.9505875697563729E-03
              -2.6046200773892467E-03
               8.2804662305704111E-04
               9.7532926325004290E-04
              -9.1048523638138468E-04
              -1.0158103659679602E-03
              -1.5193542172089851E-03
               1.9218803359210019E-03
               1.9717481990410846E-03
              -1.6218149232685262E-03
              -2.5787836875191864E-03
              -3.6687399163776413E-04
               2.3573418552109971E-04
               1.1836128102514588E-04
               3.0919889616706748E-04
               1.7844532917885348E-03
              -4.4742897577891089E-04
               4.6278941652190342E-03
              -3.3607949701109125E-03
              -7.7068890870657207E-04
               4.3094644259583171E-04
               7.7782724077315362E-04
               1.2870569736163406E-05
              -5.2798556658380713E-03
               5.4689590545042117E-03
              -3.2900964658968187E-03
               3.2180998627280612E-03
               1.0538493402348285E-03
               2.1664228360016805E-03
              -2.6717766929603391E-04
               3.5394568364369280E-04
               5.7308187213650226E-04
              -1.7428108229053112E-03
               1.6118981398670720E-03
              -3.6698897247808174E-03
              -2.7581186688519794E-03
               1.7381314452531397E-03
              -1.8770986673769311E-04
               2.2796680731088422E-03
              -9.6747760128522800E-04
              -1.4386108764834534E-03
               2.8288842434506245E-03
               4.3906963520561398E-03
              -4.1947157029561611E-03
               4.7528163608349131E-03
               5.4987979188325462E-03
              -6.4346370571864231E-03
         &END THERMOSTAT_ENERGY
         &RNG_INIT
Wiener process for Thermostat # 1        1 F T T   4.1867100823928922E-02        1540355835.0        4134847182.0        1242779661.0        1648522073.0        4276100245.0        2156260638.0             12345.0             12345.0             12345.0             12345.0             12345.0             12345.0             12345.0             12345.0             12345.0             12345.0             12345.0             12345.0
Wiener process for Thermostat # 2        1 F T T   5.3072236655353466E-01         172669729.0        1328141914.0        1727100832.0        3439612028.0        2981422582.0        2840667936.0        3692455944.0        1366884236.0        2968912127.0         335948734.0        4161675175.0         475798818.0        3692455944.0        1366884236.0        2968912127.0         335948734.0        4161675175.0         475798818.0
Wiener process for Thermostat # 3        1 F T T   1.9673605811169976E+00        3618683599.0        3620160749.0         611361044.0         913851957.0         776610760.0        2689367697.0        1015873554.0        1310354410.0        2249465273.0         994084013.0        2912484720.0        3876682925.0        1015873554.0        1310354410.0        2249465273.0         994084013.0        2912484720.0        3876682925.0
Wiener process for Thermostat # 4        1 F T T  -1.8364073017646230E+00        1112391484.0         288341777.0        2458086061.0         348022162.0        2545314851.0        1931119298.0        2338701263.0        1119171942.0        2570676563.0         317077452.0        3194180850.0         618832124.0        2338701263.0        1119171942.0        2570676563.0         317077452.0        3194180850.0         618832124.0
Wiener process for Thermostat # 5        1 F T T   1.0275179304959781E+00         349152194.0         831666182.0        2171397612.0        1663474635.0        1753085333.0         323898578.0        1597262096.0        3906379055.0        3312112953.0        1016013135.0        4099474108.0         275305423.0        1597262096.0        3906379055.0        3312112953.0        1016013135.0        4099474108.0         275305423.0
Wiener process for Thermostat # 6        1 F T T  -3.7121041303083868E-01        1607112816.0        1828574698.0        2129906465.0        4126379250.0        4215008405.0        3640134082.0          97147054.0        3131372450.0         829345164.0        3691032523.0        3006063034.0        4259826321.0          97147054.0        3131372450.0         829345164.0        3691032523.0        3006063034.0        4259826321.0
Wiener process for Thermostat # 7        1 F T T  -6.4589941950176324E-02        2059858841.0        2222750054.0        2450757955.0        1397216773.0         471411813.0         969864900.0         796079799.0        2105258207.0         955365076.0        2923159030.0        4116632677.0        3067683584.0         796079799.0        2105258207.0         955365076.0        2923159030.0        4116632677.0        3067683584.0
Wiener process for Thermostat # 8        1 F T T  -3.9335479283749186E-01        1267384948.0        3161491754.0         888075454.0        3960079820.0        1858133599.0         951153400.0        3281794178.0        2616230133.0        1457051261.0        2762791137.0        2480527362.0        2282316169.0        3281794178.0        2616230133.0        1457051261.0        2762791137.0        2480527362.0        2282316169.0
Wiener process for Thermostat # 9        1 F T T   1.0896367977312122E+00        2261798560.0        1624846868.0        1625446386.0        1479578421.0        2965549623.0        3582285564.0        3777646647.0        1837464056.0        4204654757.0         664239048.0        4190510072.0        2959195122.0        3777646647.0        1837464056.0        4204654757.0         664239048.0        4190510072.0        2959195122.0
Wiener process for Thermostat # 10       1 F T T   7.7262539323763202E-02        1651494767.0        4015258521.0        2364468888.0         765676878.0        1711557241.0        3233717664.0        4215590817.0        3862461878.0        1087200967.0        1544910132.0         936383720.0        1611370123.0        4215590817.0        3862461878.0        1087200967.0        1544910132.0         936383720.0        1611370123.0
Wiener process for Thermostat # 11       1 F T T   8.8848227055001139E-01        3775250163.0        3763487275.0        1275733262.0        4138391092.0         617988513.0        2879894743.0        1683636369.0         362165168.0         814316280.0         869382050.0         980203903.0        2062101717.0        1683636369.0         362165168.0         814316280.0         869382050.0         980203903.0        2062101717.0
Wiener process for Thermostat # 12       1 F T T   2.2826521171950767E-01        3416933603.0         387341326.0         371789163.0        1123801000.0        2052218191.0         803674396.0         272317999.0         166758548.0         310112982.0         201045826.0        1680231254.0         118290799.0         272317999.0         166758548.0         310112982.0         201045826.0        1680231254.0         118290799.0
Wiener process for Thermostat # 13       1 F T T  -3.6185540649199965E-01        1762385783.0        3417993824.0        3853438635.0         567409949.0        3054588649.0         632702398.0        2245755202.0        1652682525.0        2865544364.0         721509566.0         209733568.0         592362218.0        2245755202.0        1652682525.0        2865544364.0         721509566.0         209733568.0         592362218.0
Wiener process for Thermostat # 14       1 F T T   1.1121965841418170E-01         219341981.0        4291982424.0        1245878262.0        3149327633.0        2063290439.0         785465104.0        3003961408.0        3529909391.0          14538032.0        3603919910.0         566682685.0        1235016484.0        3003961408.0        3529909391.0          14538032.0        3603919910.0         566682685.0        1235016484.0